17281
3.6440551191
0.7356080690
-1.2777499230
-2.9977842489
2.0052746998
1.7039954588
0.9180137192
-2.7180419127
0.0063521895
0.0023767960
1.5709007301
6.2520397022
2.7464246613
-1.0725062085
-1.7545774494
3.4483405370
-0.9356287060
-2.4669392533
-0.0181627869
0.0074364983
0.0215028999
-0.1643556108
-1.5477555424
0.0435795005
4.3262828588
-0.0099819978
2.1036380502
0.7201368160
-1.7700890221
-0.0216871574
0.0025423561
-0.0052609798
-0.2339634706
-2.6264372148
4.4801943528
-3.6331408888
-1.7149090632
1.9334773485
-1.7079430860
-1.4039068888
0.0051198040
0.0058383218
-0.0051631933
0.4376127706
5.0907630870
0.3120778040
-1.3113048716
-0.7582525052
0.2229546549
0.4786941005
0.4303002633
-0.0160272701
0.0081051635
0.0159369246
4.6172604458
-5.1442320274
1.4859269437
3.5998959096
0.6785457962
1.9675708797
0.6688613912
0.3131277032
-0.0293839339
0.0152600304
-0.0090103498
6.4518637879
-3.1387248492
-0.6389654361
-0.7768564249
-2.7791398649
-0.3767604026
-1.1192811986
-0.1429492052
-0.0016342825
0.0170798005
-0.0082507239
-1.0824179825
2.7913295144
3.1471200502
-2.5412180044
-0.2997806893
0.9296835073
0.5147397372
0.9407151290
-0.0080827651
0.0046676649
0.0060958270
2.3832514332
1.6938684062
0.1175014065
-0.2288219516
-1.4760180613
-1.7218327409
-2.0833940534
1.0273994071
-0.0176168135
0.0137993123
0.0045983271
3.9780536550
3.2271358096
3.8948581398
-0.1079685073
-1.3080445526
3.1931013795
-2.4275953279
-1.1436966519
-0.0081885623
0.0226526961
0.0069922229
-1.0563237705
2.8242900114
-0.2092814004
3.9809178898
-0.2727493310
-1.3358446607
0.2257245418
-0.0841213721
-0.0191556181
0.0054368282
-0.0045207607
1.0347276754
5.3088351250
-1.3770914811
1.2141393830
-2.9630304225
3.2279283873
3.1657727025
-0.0002784202
-0.0068161027
0.0060614111
0.0046118227
0.7122489028
6.3888960057
2.9387208856
-1.1411495666
3.2068125707
4.1895853796
-3.7584607571
-2.4144564365
-0.0080909967
0.0025638061
0.0137933689
3.8848201391
8.9746785749
-6.3138186484
-2.2162974983
-2.1616896649
1.1230673555
2.5538547156
2.2470724420
-0.0085968335
0.0203300245
0.0037410412
-1.1824919918
3.8806767628
3.2554275419
9.5492133703
-2.6351191078
6.2755378335
-3.6367088110
-1.3247786235
-0.0282580292
-0.0035899174
-0.0014656176
6.0047401001
8.7600959330
2.4731017189
4.7224243401
1.5487201523
2.9932206520
4.3757017772
5.5017258106
-0.0019473813
0.0145104962
0.0031079550
-8.4212437567
13.4420092676
3.9551392290
-2.6731069189
1.6720005542
1.4476984038
0.8177901272
-2.8279772071
-0.0265102173
0.0013926149
0.0131881942
2.0684295255
10.5812853567
-5.8405808837
3.4040495111
1.8612638214
3.4733883662
-2.7568627864
-0.8029658313
-0.0215795776
0.0038035590
-0.0032572041
7.2765067405
7.0595623097
2.4319435076
11.9663847779
1.4222382510
1.4561362458
3.0829165233
5.3124604869
-0.0143702030
0.0066619587
-0.0066759608
-2.1478311499
9.3941115706
-2.8295147361
-1.7005459316
-2.4600825117
1.6883411345
0.6270872674
-1.3041910369
-0.0088931804
0.0077705998
0.0129539194
3.6817385739
12.5381538969
6.4829962238
1.2307629411
-1.6712987467
3.8723340456
-3.5993397704
-0.2757640648
-0.0178175764
0.0032990131
0.0104869177
4.5869075613
6.0706047389
4.5569785425
5.5465669782
1.0322211222
-2.1074064597
3.7346063182
5.0657621564
0.0028769116
0.0211845346
-0.0044014256
2.1980190386
13.9042087946
-4.2156325153
2.1398205212
0.5913049890
3.7916985371
-2.4120093290
-1.2687249722
-0.0232052288
0.0144137131
0.0019916019
2.9364690308
6.5990161405
-1.3948076901
5.7318609626
4.8121500446
4.0194351899
-0.2777560779
1.7686473839
-0.0232181118
-0.0010663903
-0.0047686382
0.5787796966
1.8962007590
4.8934183401
0.1850429538
-0.5914223183
0.6539547259
4.1373111018
1.0753397084
-0.0001207436
0.0031789917
0.0052054034
-3.9363389334
2.8545310899
2.4916542205
3.8539207548
-0.1771383375
7.4631976975
-1.5127266081
0.2064148410
-0.0265860389
-0.0041193186
-0.0037233673
6.4116053095
2.4392583094
2.5701985561
5.6602034077
-0.5322864528
-1.6660054014
-0.7792184194
3.2093072174
-0.0120249328
0.0191030759
-0.0139300695
2.4360423034
1.7130750125
2.1145907169
3.5642532948
0.3755686953
-2.1200672539
1.2671999196
1.0597302653
-0.0105014359
0.0151664468
-0.0105230717
-3.6264043739
1.8030493895
-1.2150161612
-0.5495131113
3.3351782464
3.3419586729
1.3055226518
-0.3460060095
-0.0142510030
-0.0095784899
0.0033157202
5.0909124259
0.5879219805
-1.4782737136
4.3223537245
1.1360093607
3.8835250381
0.1225093229
-1.5630708953
-0.0286280506
0.0082669407
-0.0002615961
2.5828487840
-2.6031211847
2.5370864192
0.6863204233
-3.1424176931
1.5976443360
-0.9431400264
-1.1699030206
0.0067309350
0.0108398845
-0.0075290257
-0.5222457366
2.7841753806
1.3664215500
-3.9662553037
-0.6970507745
-1.8728857113
-2.1879010277
1.9632464369
-0.0025181946
0.0026929172
0.0037839213
5.3238069029
3.7940284777
-0.1757346376
2.1960919212
-0.7295186972
-1.0013522469
0.6162528713
0.0332434914
-0.0257527745
0.0166426945
0.0084752616
-1.7998747315
-3.1113226431
4.2218126854
0.5372480251
-0.8374448479
2.2566541959
0.7459075385
-0.0225782681
-0.0068403802
0.0029285417
-0.0103598835
2.3717997586
4.8280724651
-0.5514397197
-3.1214507339
-2.2555765852
-1.8499552350
-1.5946704357
-1.8115699041
0.0036935525
0.0128607953
0.0109313427
4.4081398785
3.6627079963
2.0308644140
-2.0600823539
-2.6793876807
0.0933101499
1.4859164222
-0.8953892545
-0.0116172270
0.0145515116
0.0104002220
-2.9992879876
4.1828465954
-1.7817142302
-3.6823268663
0.6712135955
-1.1501253042
2.2127740024
-0.9431152309
-0.0148885316
0.0018743033
0.0089516864
7.1571477906
3.1392050209
-5.4196244489
4.1585361449
2.0253657846
0.9344179224
-7.1716229482
3.5685878668
-0.0246728283
0.0010844207
0.0087408008
3.8390316518
-4.5434055980
-1.9977954041
3.2881607233
2.1677601888
-1.6498307779
-9.0527672140
-3.1071413591
0.0008927348
0.0230533833
-0.0074178257
0.4100143512
-15.0324402217
19.0273988473
-7.0593963216
-0.0032235368
0.0101542862
0.0059573200
-1.1713485614
-0.4424525527
-1.0475914753
-3.2327474681
0.0132514742
3.4875941543
2.1010246609
1.6967526577
-0.0018509604
-0.0109814510
0.0062740060
3.9483663487
2.9841760573
-2.0244945898
-3.0692760219
0.8772947511
0.1629316601
-1.7019665538
-1.1405647781
-0.0049861724
0.0087792943
0.0176423074
3.7005910887
0.8242494593
-0.0405466498
-2.8612911645
-0.4960439003
0.9931984095
-2.2109705024
1.3221805985
-0.0015171706
0.0054959004
0.0117542884
5.1305996456
-0.0367141676
-1.2290861485
0.5916028816
-1.9753505158
-2.4804223514
1.6020991104
-1.2760071262
-0.0173557212
0.0109822602
-0.0021366247
1.4402357293
3.8391740379
1.9237747160
-2.5524616537
-3.6489741609
1.4947964741
-2.0985762143
1.1101548282
0.0161286023
0.0075030078
0.0176958513
-2.8911672643
-3.6845904299
-1.3298667651
3.7010840896
0.0352998858
-2.4028911644
-0.3468734497
3.0427322195
-0.0010291291
-0.0086315462
-0.0069518347
6.5794975448
-1.6145433311
0.4912256741
-3.6592732645
-3.2285163401
0.0885101817
0.1912998206
1.0384031970
0.0175708588
0.0190434715
-0.0129702348
-2.7966925933
4.8363180403
-0.4747410791
2.9302422412
-0.7283496041
-2.3146400552
-0.6195170228
-1.0634471161
-0.0069725752
-0.0024016292
0.0111162313
0.7332863290
2.6843387439
2.4866262007
2.4394540788
-5.3911760663
3.1150038237
-1.2582663141
-1.3852431545
0.0132922196
0.0095620721
-0.0015595963
-2.5170276343
3.0628664694
-2.7420810559
0.1410926878
-1.0615639410
-1.0789067360
0.0581655248
1.1441221502
0.0037456019
-0.0018180731
-0.0040372573
-0.5038533689
9.3634359441
1.3770370990
2.7848419094
-2.2565736187
1.3295383464
-2.9505618143
3.7722101044
-0.0073353302
0.0021327058
0.0099167950
-3.7423916983
6.4073122524
-4.4140520071
-0.4492109215
-5.9885261543
3.9462285350
-1.6871424599
2.5332078071
0.0038029812
0.0037170878
0.0072253656
-0.0595330153
5.9654941421
2.6608978490
0.9901417685
-2.6363612762
-1.3382658029
3.0238508967
4.0640672387
0.0078066885
-0.0150509551
0.0090109548
-2.1102576235
14.9632449821
4.2387395956
-5.5767515646
-2.8614672672
8.0625318727
1.6371306786
-2.3510224434
-0.0156485256
0.0060085187
0.0171134546
0.6439384024
-5.8598604681
-10.8659028509
3.1060328848
3.0523458177
3.1483210502
-6.3647129926
-0.8009138185
0.0084254424
0.0015692277
-0.0094951096
-1.7906473331
7.9415305698
-6.6354978790
10.2446235129
-5.6791722668
4.9544487989
0.4345432823
1.4247329884
-0.0111293093
0.0014157425
0.0000179136
5.4868387014
7.4305260210
7.1800081072
0.8154041777
5.3314796326
2.7594571231
8.3209815639
-3.0256643092
0.0113983717
-0.0154345232
0.0032456343
-8.2328115137
-1.1631962080
4.1903459746
-10.7916189867
-5.7214003611
-2.6156923325
-2.2382555055
8.7022369942
0.0120726139
-0.0047747113
0.0040257357
-8.4042426542
9.0550098144
-2.1845602533
7.3391312556
5.4777974978
4.4980134700
2.2534738771
0.7612888945
-0.0082720030
-0.0044390400
-0.0134821941
7.9734053908
-2.8565546151
4.4403269498
8.4275876065
9.4168495857
3.0345584000
-4.1815342517
2.5684907390
-0.0032107883
-0.0098485836
-0.0145284593
-13.5975521432
-3.3721008945
-4.5963407413
12.3525158840
-2.7430932619
4.1670936382
4.1521513779
-0.8295584727
0.0003058841
0.0013999857
-0.0083422613
6.7501860898
-4.1277983903
12.1021799116
-5.3110587675
-1.2062831558
-11.7397645654
0.8754415096
1.9270801656
0.0064312477
-0.0018796175
0.0131472729
0.0067678309
19.7208924555
-10.9485000352
-1.7192727642
0.5869501750
10.3554508165
-4.0552243860
-2.4608660236
-0.0053191070
0.0002305342
0.0116156657
0.6911560612
-2.7817149658
2.3699832909
2.2398224466
-4.4015922890
-5.6121325445
1.1576121107
2.8788112046
0.0172225809
-0.0030120178
0.0045060648
9.5319559605
6.8295250483
2.0978084519
2.4716096037
-4.3720424988
7.0510675813
-3.0499385714
-1.8906066892
0.0101898667
0.0140319322
0.0116067802
-8.4559295830
11.4119973282
-5.2798709706
-8.6815703392
2.4420047350
-2.5489608709
2.1987964610
-3.1228238277
0.0050505117
0.0047749281
0.0073457795
0.8429705066
0.4261409260
5.2542381187
2.8490953910
3.5633579222
6.1812244094
2.2332792946
1.1870326090
-0.0081806490
-0.0110006035
-0.0071753359
6.4133464419
6.1421736588
-1.0090006728
6.8148092424
0.7863211311
0.1837271131
2.3477892730
4.7314229568
-0.0009801352
0.0014647458
-0.0072850232
2.1004627398
6.0593069396
-0.2304585477
-1.6379139603
-3.1035311459
0.8443599230
-2.8564761025
-1.0415436014
0.0119326628
0.0019920350
0.0145782099
3.8526961624
3.7217745903
-3.1023500338
-1.2750649838
-3.3689578289
2.2362766788
2.0003307166
-1.7349668863
0.0146778517
0.0074465090
0.0050399548
5.5440228023
5.5118835838
-1.1660412952
-2.2876973875
3.2864929820
2.6092381060
-0.1537243932
-0.6680743085
-0.0066669845
0.0043981392
0.0143331351
1.8492868700
0.4175040775
0.8728998025
-0.0734952689
-1.3753086572
0.4187644350
1.8578323637
1.0225908307
-0.0135741696
0.0071915314
-0.0051352058
1.9465217874
0.9567332912
-1.8283379234
2.2911650988
2.1972192522
2.1658741998
-1.2313501455
-0.2652069104
-0.0149649873
-0.0000536662
0.0051455638
0.7838908134
-4.4283017707
3.3451951253
1.9751933457
2.6520480181
0.4952037732
-0.9266578548
0.5429555222
-0.0015872601
0.0002317794
-0.0111049078
-1.3998308852
-0.9596538804
2.8166200423
-0.8947691376
-2.4883428419
1.1888352752
1.6324852464
-0.9447631107
0.0015910493
0.0057894532
-0.0082791287
-0.2901512389
3.5049028286
1.1375483502
-3.0851227429
0.0683457155
2.5536997099
-0.1549164829
-1.0901777417
-0.0052574353
0.0018144153
0.0165878439
-3.7753278933
2.1430934892
-2.0986916047
0.5241516266
-1.6257475388
3.8522979192
1.5683455633
-1.8465635010
0.0064146590
-0.0056173693
0.0113434368
-0.0029616429
1.3819090338
-1.4703158009
-0.5874186160
-4.9234859076
1.1122667528
-1.2260599401
-3.3587965256
0.0110059041
0.0023519020
0.0012176192
-0.0564633110
-3.2027932868
-5.7443206808
1.3379715018
6.5732741041
-0.9829819291
-0.2192472741
1.6063278560
-0.0199148273
0.0027656960
-0.0054052876
13.0904798728
-1.4586383111
8.6045014592
1.8809924822
0.0145923557
0.0050175466
0.0013339260
6.6056627052
3.3026099876
-3.6529802710
-1.0507955248
-2.8575347802
-2.1072706770
0.7706113129
0.6003357235
-0.0016975989
0.0129003673
0.0144154900
-0.1143303537
-3.5823992016
0.9973437087
2.1187922427
-1.5210553165
-0.6748756599
-1.5743154730
2.2806318878
0.0080534545
-0.0049793657
-0.0104695739
3.8663533847
-0.8273199266
1.2397184273
-1.4916900206
-0.4896535081
0.4258645858
-2.9050951582
-0.9562813897
0.0125196897
0.0168202020
-0.0010623247
1.6378261997
-1.0381200491
0.6136030585
2.9610791895
1.2987208697
0.5244849407
-1.0579327377
-0.4197003995
-0.0165556343
0.0058180551
-0.0039519447
4.2763456659
0.0812462275
1.1969218038
0.0092557610
-1.1422406116
1.4645129007
-0.4863831817
-0.0410507719
-0.0004827777
0.0155277388
-0.0029419912
-0.0199554347
-0.1797751583
-0.6819366515
3.0373156319
-0.1999356878
0.4426153160
0.9554008173
-0.3939480597
-0.0163717864
0.0040625192
-0.0077398518
-4.9404929324
-1.3518494281
0.0174491709
0.0671621583
2.9191172914
3.7749783393
0.3315641733
0.6709295582
-0.0114525360
-0.0113028770
-0.0049208522
-3.8735997030
6.0473675155
2.8501847159
1.2012576625
-1.5895786046
3.3651187224
0.4178031268
3.5913696064
-0.0084289323
-0.0025292645
0.0069201144
-1.4839103017
5.8347838713
0.9590998542
-0.1916070244
-3.8978640456
-1.0667313387
-2.3298808727
-0.5938762258
0.0054335999
0.0162553103
0.0094765498
-4.0821713775
14.1626274214
-1.7494303585
-1.4292466164
0.2900772608
2.8484837797
-0.1737507205
2.0857167032
-0.0090717175
0.0026316004
0.0129708147
2.3499097621
-6.3111392262
2.3363926295
3.0489812587
-2.2409812308
6.3419719310
-0.3707620265
1.4899714489
0.0124898791
0.0050512121
-0.0096236195
-0.9484869497
2.4527118144
0.8216885604
7.6153734917
2.5551959808
-1.4784848472
-0.1630570554
-9.0127850938
-0.0044602641
0.0172007199
0.0035634348
-1.7470058155
10.5672551936
-9.8612092319
-3.4491084347
2.3174330984
-0.1272298955
1.3617165596
-0.8680223407
-0.0037549166
0.0028962311
0.0091623085
-7.8824691851
21.1002247014
13.1455264400
-2.2024141504
-1.8183382486
10.6890457131
-2.6549403502
6.4424091210
-0.0238325662
-0.0099856050
-0.0000287362
3.7592689546
-4.7690628734
-7.7676722256
5.1377103427
3.8280268211
-4.0390749867
2.7318815781
0.2246530108
0.0173681600
0.0114696476
-0.0107450717
-14.9163427334
-8.2628379662
-6.3890601869
17.4041918352
8.8957106698
-6.2528130519
0.9563703183
5.4294574996
-0.0018648888
-0.0070089797
-0.0140829895
10.3481956456
6.7164041794
4.2404214690
-13.0549542398
2.9278788801
10.4530384470
-6.2335426811
2.9640554981
-0.0154933295
-0.0112132390
0.0139801246
-8.0233659126
-6.8697426016
-6.2764851121
2.0198797601
2.4557660252
-4.4984379790
-4.4629127465
-7.5168792854
0.0107702667
0.0006293667
-0.0048445873
-4.1581139811
5.0194713789
3.6060569516
-7.7894578105
-3.1800237412
5.4878646753
9.7764544116
0.9686479727
0.0010186645
-0.0099593166
0.0052631195
6.5376360841
9.5455167889
-8.9045059853
3.5451351334
4.8496659829
-3.3445756287
-8.7052925023
-3.3777378804
-0.0045266022
-0.0133686444
-0.0075547685
-2.5479817589
-4.6770266514
22.8127053919
4.0079351464
-0.0445564860
-5.1322766758
13.1411854267
-1.3756468103
0.0061470667
-0.0026230701
-0.0139032407
-9.1132055971
-11.4265844922
1.1507959102
3.5015564819
-1.6075128729
9.0566620824
2.7791949637
11.1383737910
-0.0009143607
-0.0070224866
-0.0110834003
10.4808544318
-0.0991844519
-13.0384557881
16.1347770408
-7.2390511520
-5.7679540370
-1.0459003218
-7.0250854029
-0.0052026883
0.0117911598
0.0000690008
-7.5271983904
2.4489140454
18.6659940578
-0.0890132496
11.7183851669
7.0782214677
0.8184232307
5.5879410339
-0.0097235314
-0.0130971597
0.0074859893
3.5696392600
7.0852940645
-9.3073877843
-9.6769900490
-6.1597220729
0.4814984774
-1.2551405856
-4.9444538709
-0.0181889762
0.0131985493
0.0179297891
17.7052890404
7.9861593417
-7.3618018229
-6.5613973558
9.7596399883
1.1514974600
-5.4762864349
0.8588243076
-0.0143729173
-0.0026635397
0.0077074466
-0.7869032885
2.7675720917
13.8850548201
3.2154139536
-3.8409030727
-2.5467496846
6.5551678130
-1.1442358250
0.0014165838
0.0060427769
-0.0037219237
1.5416622631
2.8696804930
-3.2371942447
6.6698142135
-0.9166682715
-6.1424236459
-0.2605481034
1.6665409929
-0.0036308060
0.0043561547
-0.0071445899
8.2739300202
1.7072720163
-0.6363948623
0.1799000242
0.0065109718
2.6572142956
-3.7312972891
2.4259893670
-0.0006107256
0.0037148449
0.0031104531
-1.8951801860
-2.7237414528
3.1528848254
-2.1551331931
3.8038514517
-0.1618328743
1.7461773012
-1.2285180131
-0.0039809537
0.0006804344
0.0097111983
4.9191237729
8.3312380775
-3.2111727598
-2.4736355005
-6.4150989622
6.0286169970
-0.2429019859
-3.4030873984
0.0094651303
0.0033464076
0.0190366400
2.1177539094
5.6416719803
3.0050852385
-0.3023608114
-1.7945005314
4.0575096652
0.6809164119
1.8704252134
0.0031298780
0.0059735996
0.0053283283
0.8978953432
0.0266606667
-2.4549222940
2.9440692870
-4.8855305786
-2.7666624359
0.1183361052
1.6377978530
0.0102224949
0.0052213072
-0.0093857417
-1.0410771319
-1.9473564757
0.8351437356
-1.5266535946
0.9142582412
2.8368726014
1.7697446893
0.8209319162
0.0160455100
-0.0055443657
-0.0049153752
4.7518726834
3.2843554023
-2.3947545344
-0.1193677723
-2.2191074239
-1.9978549253
-1.3711956525
0.1963662029
-0.0025939772
0.0108878601
0.0089036498
-1.2199859182
-0.1602407020
0.5310980131
-0.2894260098
1.0980795567
-0.3817931246
-1.0497146220
0.7451385469
-0.0016196673
-0.0042646470
-0.0018400456
-2.9353001768
2.9025080565
-2.2881738229
-3.6645907894
0.1587170052
0.3330569437
-1.1943914062
0.9763653210
0.0037212445
-0.0048867694
0.0134653410
0.6566036457
-0.5282892624
-2.1841946243
2.0091635440
-0.8369736242
2.8133806058
-1.2341177487
0.2261542202
-0.0135868485
0.0114888552
0.0035796064
-4.7682438355
1.8451475400
-1.2655301590
2.1493129002
-2.1512715834
1.5112173890
-3.1601800359
1.5677187382
0.0049112447
-0.0072156346
-0.0070112316
33.1205694530
2.0355736819
24.7563416117
4.1911906987
0.0110889453
-0.0100876330
0.0134851406
-0.1307911854
4.2592465491
1.2963974561
0.3360077257
1.2531500956
1.1912202149
-0.3844575573
-1.3834424779
-0.0209027373
0.0000612449
0.0110594754
1.2636442275
0.3307037846
3.3715053040
2.7027068887
-1.8211107651
-0.0910618919
-0.3844486222
0.4390819811
-0.0056555397
0.0096030814
-0.0045727136
-3.5364791983
-5.3878240222
0.4099447253
3.4169258117
3.1548112008
-0.4180334337
1.5460861443
-1.0138288220
-0.0046218573
-0.0088441801
-0.0194554620
0.3742299485
3.4549466372
-0.8697294990
-2.4932109858
-4.3879400226
1.3579510291
0.8947648740
1.8594237944
0.0146031820
0.0012791282
0.0095312914
-0.2221762551
-0.2384553056
-3.7043932143
-2.9402070587
0.4153220221
0.2406636992
1.2712610221
0.9192625475
-0.0026315019
-0.0045243093
0.0019914635
-1.4808275854
6.9545505808
-1.0574851571
-4.7761844783
1.3023069122
2.5915483071
-2.3300590841
1.3725613998
-0.0044302267
-0.0059595710
0.0229391238
-5.0231906316
6.6559515722
0.5505887600
-3.2101907948
3.9882937602
3.1945302076
0.5365565152
-0.5170523794
0.0061713080
-0.0082975645
0.0201040653
-3.0246964451
2.3152364455
-1.5928354157
-1.0942096758
-3.8726658070
4.3343048410
2.8446334696
-1.7979420939
0.0037064684
0.0023545997
0.0063736499
1.9805652603
9.8975720893
-5.2550743495
4.5171866052
2.7226878184
9.5842867502
-1.6498771056
1.7098713473
-0.0151603123
0.0029220865
0.0082371746
-10.5180431962
1.2623320611
4.1826257835
-9.1130060508
0.3867211760
8.2543955007
-2.4043531574
1.7320121808
0.0113281504
-0.0057809614
0.0059881810
6.3094165807
9.1765049431
-8.8358464596
9.3962408944
-7.4662495771
-2.5463864470
-0.8281577096
0.7814230238
-0.0010362723
0.0110337171
-0.0027202796
10.2166049666
12.6442958884
9.1812662546
6.1632747772
-0.3179820951
-4.7411609524
-2.4545840711
7.8942377756
0.0019073075
-0.0007861506
0.0018066178
-4.5699828570
-15.3079788463
-6.9715449375
-15.4991134691
2.6755786081
10.6224084047
-1.9596808832
-11.4781471571
0.0237610105
0.0028460432
0.0102150248
4.0567014925
11.0960284509
-5.1034029824
6.7619059969
4.3478281320
-3.3270138675
6.0877545544
3.5891759618
-0.0022294765
-0.0060147555
-0.0131653910
-7.6454356613
-5.2298350796
4.3209353764
11.8262587490
0.4892510714
-5.6474316497
1.8252208105
0.2035509616
-0.0034320601
-0.0139678363
-0.0066488061
-0.3997097777
2.2455566624
1.4821903895
-12.4808714881
-7.4420900565
9.3150954626
-0.4013174958
-1.3025287750
0.0053795016
-0.0125153096
0.0122229968
-1.0301608338
0.1955280262
-1.4516752070
14.1148391688
2.4194226307
-8.8044711686
7.6625361448
-0.6890508249
0.0145838421
-0.0021540496
-0.0066424412
17.3023624284
14.5417892216
-5.4994175532
-5.2123903766
7.3677986571
7.2740796179
-0.3203003068
3.7458388212
-0.0183136861
-0.0079853488
0.0072647372
-7.6042343651
-15.6710769758
4.5895215876
-1.3309475122
-0.7748361508
-6.6978402960
-3.6874517918
2.2017294847
-0.0057827583
0.0013685771
0.0039346291
-0.1282538256
18.0981629167
-5.4472435537
-7.5860395018
-11.4430055501
9.0000652656
1.5924559975
-6.9182044154
-0.0028836464
-0.0020317469
0.0112702174
1.9602000710
-9.4268401744
7.1608563791
-6.6029132338
5.2671806027
-4.7690355054
2.6720582079
5.4234366703
0.0039721915
0.0016966063
-0.0071837141
-12.9605610011
5.5171588504
1.2831371596
18.2312249497
2.2699718716
-4.6226680861
1.1741410861
-6.4771007859
-0.0058903619
-0.0099217219
-0.0119658225
-6.5547983880
-14.7748780317
8.0922270080
-6.6317716215
8.9835009774
-1.0269449680
-0.1567031475
4.3609471283
0.0107117126
-0.0179710760
0.0013396789
9.4958357592
-1.6089934759
-14.8100029858
9.9997296217
1.0701486651
-5.9965952906
-4.4582927926
-0.6723309842
-0.0021300722
-0.0005253788
0.0056077337
-15.7896654990
1.3732394054
6.6499087841
-25.8834072964
0.4378333118
0.1435515060
5.3597912014
-1.6248194515
0.0079022835
-0.0143757014
0.0202372326
17.7818250223
11.1156149962
0.7612374029
9.4643033211
4.0926093088
9.2189848678
-2.7071356242
6.4221979406
-0.0120669818
-0.0083293145
-0.0045454452
5.5327416813
-7.9351690356
-9.4681741811
-6.5526745655
-11.2018017280
1.1230765112
-0.5709748753
-2.0754575164
0.0084998967
0.0216640972
0.0031873903
-10.1361599998
4.6664811468
14.6462131561
1.1283289737
11.9829581798
5.9404182586
1.9703437681
-3.6615061195
0.0023786445
-0.0156374630
-0.0042827445
0.4405226015
-8.1121236566
-8.8065413569
8.8985811360
-1.6347734094
0.3199761951
2.1333598158
2.4093822679
0.0026817248
0.0058327786
-0.0053204716
1.3992231202
2.7566794773
1.1881195873
-2.2445686160
2.3046444282
8.9876118381
-2.2403351883
0.7958591994
0.0009956201
-0.0177387808
0.0183650342
-1.5298732081
3.6004807056
10.2021553904
-0.7706659427
-0.1643470273
-4.5493205691
-1.2271686590
4.1460945429
-0.0017211794
0.0083026607
0.0099031264
3.4419735067
11.6065293956
-4.5782882718
-5.4322247915
0.3360957889
-6.3443962524
-2.2328632213
-5.9812614676
-0.0166008650
0.0185812244
0.0117843634
0.2516410247
-3.0976663328
5.9805400013
2.7155090065
1.5103387348
3.1267095149
-1.5465820261
1.7458880003
-0.0036097045
-0.0052319332
-0.0105563984
0.8244543868
1.2295074156
-3.8769658685
-3.1464071572
1.6216939558
0.1182002420
-0.7543637588
-0.5216582559
0.0063040094
0.0018304723
0.0113865396
-1.1125576131
-1.8579881695
-0.3392629613
3.7692242658
1.8147562325
-0.5453737873
3.0818472852
1.3625277122
-0.0095324463
-0.0072768608
-0.0180693525
2.5960910182
1.6200777689
0.2072312480
-1.1872009036
-1.1061418720
1.2286444783
-2.4808324994
-1.6565661891
0.0026121955
0.0050019521
0.0064017724
-2.2352832367
3.2773306324
-0.5310117860
-3.7096238496
-1.6262556576
3.3478183396
1.0831089358
-2.6684617061
0.0076491898
0.0015559718
0.0135982981
-2.5398631648
1.2719305688
-5.0084375647
1.3610320103
-1.9313004047
4.8706853200
0.4458593735
1.0893661803
-0.0147659709
-0.0029730464
0.0057735080
3.1756308194
-10.7179721163
2.7188030371
-2.9015478220
-3.6659800718
-1.1102258512
4.6899886445
-0.3204324006
0.0174334206
0.0023662102
-0.0078672313
35.4888476465
-0.6575781034
11.7083040455
-4.8268087070
0.0039671091
-0.0098543180
0.0191931605
0.7869761183
1.5738885685
-1.1391414614
-1.5452553946
1.6566955574
-1.2884912531
0.1097675568
2.4380710288
-0.0124502187
-0.0047091439
0.0063141593
3.4303890584
-0.4308564551
-2.7983325454
1.6091254237
-1.2256548788
-1.5088143878
1.9774455119
-2.3433186515
-0.0097304292
0.0070537791
-0.0022796083
-3.9712383154
1.0729521321
2.3051364360
-2.4712571054
-1.2667367916
3.9312993183
-0.1513937305
0.3883277315
0.0197044587
-0.0124251244
0.0088155023
1.7360086815
-2.7537233911
-2.1875930156
4.5784011436
1.4915816739
-1.9336750446
0.4773575617
2.3733831236
-0.0283644222
0.0070346661
-0.0098314778
0.2151672237
-3.2818171234
-1.0031540770
3.3596160351
-3.4049698420
1.2306563360
-1.4042086250
1.8312084507
0.0147114006
0.0012349123
-0.0138785685
-1.4933422008
-1.4760334820
-1.0026737313
0.5167112465
-3.8752920094
1.5963995198
1.3006635959
-2.2892877387
0.0218010543
0.0010214797
-0.0041322644
-8.3002996188
1.9465360824
-0.6344513020
-5.2543904219
-8.0475147073
3.6894824308
-2.8288487980
-1.1541043881
0.0027998927
-0.0211660123
0.0123041576
-1.0132562160
5.8153913247
-7.8707526864
4.4520975813
-2.9679452406
-4.1726967284
-2.0981973328
2.3918491920
-0.0060217265
0.0049574276
0.0042793792
0.6948958597
0.2234954562
-2.4684167722
-6.9366589851
-1.5355964089
8.5312359340
4.2876175664
0.6463697561
0.0065420547
-0.0098672203
0.0052417934
-8.3742389540
-5.4241947389
5.1876848207
3.6596259002
3.2549333019
-0.7506654185
-2.9517033014
-2.9275535485
-0.0091964121
-0.0059011359
-0.0002515572
-8.8118739078
11.1267571852
1.5183234948
6.7347831068
3.2873463517
3.6261193020
1.8538262505
6.3987931872
-0.0146512548
0.0106834192
-0.0032881431
9.4371021276
-6.6823121452
-12.0843933289
-11.9861056073
7.7606003475
3.4851262083
3.5061568206
-5.5690173076
-0.0005906779
0.0063013160
0.0042331853
-12.8473014032
0.8963552896
1.9401410896
2.5115280059
-1.5136716008
-2.8892450110
2.2158796019
1.9541174708
-0.0129053717
-0.0077442184
-0.0070309522
-8.5514584646
-13.9799954922
6.8891706729
12.8616211352
-5.7583124533
-0.2519534029
1.2045364145
-3.3863015942
-0.0027618225
-0.0102013247
-0.0066313155
3.9460382209
-0.7621861654
-2.1345118305
-10.2932063855
-2.1128003800
1.0322953764
-7.0429466385
2.0718901780
0.0082792226
-0.0053841852
0.0102408157
-12.7459672008
-2.3610411160
-0.6167120514
0.8939918894
-0.7468226844
-2.3198419875
-0.6583926464
-7.3507443444
0.0014691832
-0.0047237389
-0.0010308188
12.4630156568
0.0319565915
10.3903237322
-10.2357312841
-2.7901393663
-7.0460019269
8.4809957599
3.6619580171
0.0024449593
0.0008423547
0.0065170244
5.4549912739
13.4873573817
4.6321681041
11.5880912518
1.5895104245
-1.6329287718
-0.5379241462
-1.1406503663
-0.0071449320
0.0044657038
-0.0049597713
-3.3074818753
-3.4540331389
1.4238689986
0.7768918752
-1.8282683011
1.5898901379
-1.3080322441
0.2320071303
0.0119805846
0.0007024113
0.0001064780
-6.6510916024
6.2856432960
-5.6014343110
-3.9363940334
-7.0660831982
-0.9836190404
-4.5223548406
-1.0412133017
-0.0062393970
0.0139520111
0.0010427926
8.2533751627
-0.7422179373
-9.7879860032
-0.4889811115
4.8613642227
3.1812004328
3.9696949754
3.4438023455
0.0011431826
-0.0014992825
-0.0092326672
-2.6378314815
-15.9310524133
11.7555353171
0.8950438977
4.2086637347
-0.5651437666
2.5327658535
-3.6694664804
0.0128743468
-0.0211626672
-0.0042887743
12.2838320127
1.0071927864
-17.2879544316
4.4564310186
-3.7941978133
-6.7416933620
-6.3263436543
4.0646854430
0.0058955218
0.0102811918
0.0006724960
-13.0081912481
-1.5860841642
9.6520926186
-3.5644576169
8.9842756793
-1.9521230696
1.3515084856
1.8097792523
0.0148925586
-0.0140753256
0.0040580925
-2.6581163377
7.0217548350
-3.4059430690
4.7062007366
-8.0385819263
9.7019014452
8.7715426196
-3.8419167383
-0.0008212049
0.0048283000
0.0069962276
3.0015005529
7.2809840890
-0.1987201170
-1.0230101079
5.0216804663
-1.8320945735
1.6427026358
0.6124497317
-0.0055553117
-0.0127126848
0.0072215952
6.4210052861
6.4109076040
9.2755491858
-14.0835972172
0.7449734740
1.5732760530
-5.8088962117
-11.2069148968
-0.0134323403
-0.0008435729
0.0054598613
-4.3960310401
-13.9447285793
-6.4735179622
16.5283393690
-0.7346886607
-1.2633644893
-6.4726894494
7.7958270061
0.0089965560
0.0058953347
-0.0123504851
2.9663545965
1.3501815026
1.7049605193
0.8187916798
4.7086718557
-8.8063021618
3.4741008395
1.5005612427
0.0143224495
0.0003981390
0.0023017552
0.5289123289
6.5237559252
0.1117323395
-12.6563873630
4.6400156612
-8.3158452095
-4.9820415972
-4.6798000215
-0.0066128162
0.0009986122
0.0017507933
-5.5073502515
-6.0683963245
2.4849680149
8.2031252412
-8.2221218611
0.7537250111
-0.4642603076
2.9464073685
0.0006540835
0.0023726677
-0.0103121819
7.8618293880
-2.0452101338
-1.6225571412
-4.9587297577
4.2495633507
-0.4582165138
6.8684064276
1.6445852099
0.0119851244
0.0053430975
0.0048292769
-4.3677852676
1.1396839251
2.8649894407
4.4161457752
5.3178813274
2.0767662919
-1.4652266964
2.1312036351
-0.0186006633
-0.0072350573
-0.0085051421
-4.1862560860
-5.6867666024
4.6620176629
-1.5472413603
-1.0355191692
-3.9938866974
0.0885405932
-0.0638021767
0.0158640139
-0.0000416750
0.0018651543
1.8260862538
0.4044392573
2.1237677342
2.7593748863
-1.8872360456
3.4972532857
2.3569144858
2.7255306121
0.0038927758
0.0100153142
-0.0045837901
1.8853334733
2.1056014662
-1.5413325828
-3.1331462048
3.0969072412
3.6846506192
1.1358949359
-1.8276813545
0.0001902707
-0.0002935772
0.0062534165
-4.4192199003
3.8607575375
0.5444544168
-1.2279368504
2.7394074501
3.2683903048
-0.6479166603
1.6564149338
-0.0265224833
-0.0121662912
0.0171586752
-0.0908655893
-2.2431238621
-4.0410006075
1.0248890032
1.3540916560
-0.3920043577
-3.4133716846
-0.3980347166
-0.0003635278
0.0016935983
-0.0054166748
-0.7299827930
6.9191493567
-1.6176863154
0.9521159197
-2.6619153373
-4.8996008448
0.7876318518
0.6862692960
-0.0079220678
0.0017157371
-0.0030585429
16.0256453644
5.8527467711
16.9909667395
1.7615150570
0.0247812097
-0.0133633480
0.0083865321
1.9715983328
-2.5403459504
1.4182826998
3.0103955063
-2.8809791688
3.2586123197
0.0273719686
1.2123280394
-0.0095066953
0.0035708557
-0.0054856831
-2.6604139039
-1.3133224008
0.8154774055
0.6582570486
0.5803393921
-2.6805333918
-1.4379259171
0.9520031729
0.0072089199
-0.0041291154
-0.0085240666
3.6813212741
1.2819654798
-3.6080089026
-0.7838254511
0.1708708304
0.1139335797
-0.1982097032
0.4528694362
-0.0029049338
0.0076917950
0.0062249145
-3.8849865321
2.7105217155
2.1417833682
-2.8920090743
-0.3692441878
1.6662041924
-1.2188589892
-0.5289881178
0.0137489107
-0.0078947732
0.0061364662
-3.4295725778
0.4124253578
0.0838132295
0.6097930285
-4.5462370007
1.8615014876
-0.5956508478
1.7179801569
-0.0106670159
0.0019977427
-0.0005759068
-5.8442849549
7.8534632366
-4.4263888940
-0.1395530101
1.8075986059
-0.6530426879
-4.0276155917
4.9844039811
-0.0107408588
-0.0007911345
0.0062568558
-1.4351569891
16.2642551990
-1.9658956311
1.4512001509
-4.6268034824
2.4856774573
3.0141457935
-2.0916417832
-0.0108389518
0.0135748544
0.0118317888
-11.2328571180
1.3532719344
-7.5973801631
-0.4690717349
0.5723634167
4.8868226189
-9.9848218513
9.8231376006
0.0074888366
-0.0041329198
-0.0101843889
8.6861584667
0.4827948222
0.3095316656
4.3638652563
-4.0257886880
-14.0241782715
5.9871153060
-11.6231866815
0.0070711311
0.0074899100
-0.0011832943
-4.0631760049
9.1886285513
3.2545792235
4.5342786651
-3.8093832687
-2.7276045671
-4.9681367022
7.4697134413
0.0043372447
-0.0169450234
-0.0074870450
-5.2445087742
-8.3116015487
6.0640676922
5.3274523576
-7.4311407124
-5.2220568326
-8.3888963758
-7.0167582056
0.0033939870
-0.0013030266
-0.0020758936
-6.4053784238
16.8204993390
10.0283197830
-0.7850352331
-4.6791553447
-0.2894708445
2.9194946125
0.8571872046
-0.0020882119
-0.0077734006
0.0032258528
9.4232886655
-3.6595169372
-0.9557764606
-1.1636036212
-2.1829331386
-6.6832635174
-2.9170017081
4.0030134285
0.0128349595
0.0042223700
0.0089595092
1.1616147163
3.6322026784
-3.9636804891
-6.7549076887
10.5749450905
7.8562210025
1.9050633808
-0.4126844618
0.0003916680
-0.0047663101
0.0037511391
12.7583381082
4.5383499496
-2.0920152631
4.1722123907
7.4802856184
-0.3880699080
8.0867314286
-0.1596470043
-0.0096841239
0.0051759788
-0.0042407028
-4.0832649910
2.7083789911
-5.8115603996
2.7321149081
0.7972645138
-5.3721333873
-4.3341958974
6.7843440545
-0.0114552055
0.0074316930
0.0046540506
-16.3599500882
-13.4285872258
8.0602105183
-10.4619341282
0.2856426033
7.4057481180
-0.5358126092
-8.5543591451
0.0045058638
-0.0082255602
0.0093260833
10.0440766252
1.7881692472
3.3278181025
8.7182322789
-1.6840066142
-1.6408701364
6.1507080467
8.1899666125
0.0065649272
0.0006473777
0.0051869441
10.7274979436
4.6529946261
-7.2866551651
-16.1808703079
-3.0634221344
4.0002222052
-9.3338082611
-7.6925704069
-0.0012639916
0.0130674369
0.0221160147
-6.8333349546
4.3350024259
1.7067801315
7.9604933284
0.4265853833
6.1215827237
2.6666235803
-4.1253665731
0.0013115236
0.0097554585
-0.0001424346
-4.8832703254
3.1349175603
-3.1571585397
-7.9591851501
-1.1496513551
-3.5191575422
3.1405371463
-0.5864714718
-0.0010600357
-0.0007752098
0.0091837796
-4.0982903842
9.7102947436
6.1011858947
-3.5121787382
4.7975833049
-5.4980540373
1.4640968432
4.5670058238
-0.0046818985
-0.0228510455
0.0009945436
5.4279852127
-11.6886862698
-3.5206721269
6.2389431673
1.3519261779
3.4807970913
-5.0529390508
-6.8354772997
0.0078235082
-0.0031465610
-0.0049389348
13.0015846727
8.0547239701
1.8736839956
1.2939858403
2.4545744533
3.2449193769
4.2676521524
-0.3034929945
-0.0056006053
0.0021008959
0.0039963442
-4.0485389945
2.1945760902
-6.9607251593
-13.7218586145
-8.6366753287
-9.0766210786
-4.6872494790
1.0091466497
-0.0062490237
0.0161660567
0.0046357657
-6.7888489337
-5.5606016484
16.4326509758
19.9776889998
9.3308979531
8.9012326219
4.9675986436
1.2147509985
0.0081159255
-0.0135214577
-0.0169046157
-2.3159400359
-13.5235413976
0.7264790307
-12.0998015112
-0.5447504891
-6.0199162615
2.7688989316
-1.7520107647
0.0089009986
-0.0002234320
0.0065725484
5.6798435976
5.3396128293
-16.4620196117
-3.6769378574
-4.6617018302
-2.4077083725
1.7784003309
6.2012014822
-0.0078123599
0.0063348680
0.0013617766
21.9200370062
-6.2700795915
-2.8556114504
-1.0920114919
2.0153878912
2.2131860401
-9.7967499573
-5.9882470161
-0.0023527108
-0.0009266468
0.0012291913
-7.4504604716
3.2036355052
1.1833406316
-4.9725333831
3.2961513255
6.3691179877
1.9440059245
-2.4684392424
0.0057582948
-0.0074590458
0.0039125261
-12.5095233106
5.3727247932
12.3297169589
1.5107031027
2.9811023242
-2.7167994337
8.7988574414
7.4927860562
-0.0085802824
-0.0049764847
-0.0074912441
23.5304915899
2.5107784693
-4.8529153583
9.6870312839
-10.0403260548
5.5183103001
-6.0553663795
-3.8870882951
-0.0088259607
0.0174741960
-0.0055211954
-7.7915558539
-3.5743945322
4.8803882018
-4.0421990696
7.7467689884
-10.1839385172
2.9427871704
6.6431899883
0.0193534072
0.0017839620
-0.0018624176
8.3472583607
8.8936892773
-1.3655366808
1.3940695127
-1.9174636609
8.7894851170
-6.5867362676
-5.8561850321
-0.0174616673
0.0066241511
-0.0010185271
13.0827655522
1.7214933546
-1.5860741863
8.6327404697
-3.9853392519
-3.6398521800
3.6201672998
1.7831871254
-0.0129165207
0.0184698736
-0.0131000694
2.6617767617
-1.8265297534
-3.1490061830
-1.9337893028
-4.5055324936
-1.9205452335
-1.6539980133
-2.3413798092
0.0259310005
0.0076174336
0.0111222122
-8.2869703214
1.3755824583
-0.1531583576
-3.7462314688
-2.1546389375
-0.7128947529
0.8998035626
1.5536807505
0.0146654568
-0.0040663165
0.0045550393
1.3344071790
-1.4822037608
-0.8216265211
3.2195221386
3.0801862581
0.3675971859
-1.6734390333
0.1739059369
-0.0088228474
-0.0053530291
-0.0096894444
-2.4487455308
-3.8742077390
2.7111463808
-2.1650469382
3.3898309549
3.3548856964
-1.4583417460
-3.0081431398
0.0078570973
0.0078354172
0.0053091728
34.4540223884
0.6923055479
18.3193420787
-0.8670855349
-0.0058919933
-0.0050610885
0.0109272744
5.3689325569
-2.4466593281
1.7089472828
2.2725357261
-2.9143196050
2.4790142359
0.5860067688
0.3728051183
-0.0228206761
0.0167073189
0.0000710707
-0.1483246349
1.9003211301
1.1282251717
-1.6425809526
-1.8433521709
0.8484638734
-1.6928864112
-1.2643505698
0.0165646215
0.0056241418
0.0018832971
-3.2563318160
-3.9350158095
-0.6675690912
3.6907514171
3.0439489915
3.6404211223
-0.1268185536
0.5382025719
-0.0201096231
-0.0084146178
-0.0083878927
-2.4159601819
-1.5223889139
2.3224952650
4.7291713086
-2.7831659014
2.3318216421
0.4923064687
1.6798165153
0.0013080483
0.0011713510
-0.0066281742
-4.2530126906
1.6429401454
-4.5608847371
1.9591633869
3.7751977026
3.4650813431
-3.0085849793
2.1985019633
0.0011157490
0.0096102011
-0.0062524512
2.4035669829
3.1026990637
4.5853825834
2.7174246388
-5.2448563887
0.0268065811
4.3943174731
3.8652433092
0.0178842445
-0.0007724456
-0.0009851023
-12.5944427498
5.6295964893
-10.7863621834
-5.0167689420
1.0991868209
8.8092228384
-1.7807372167
-1.0730556997
-0.0041904184
0.0019360679
0.0051838349
0.2862101681
-8.2083167355
1.5037298546
10.3795926091
-2.5527170367
-3.0978676742
-2.3451620094
-6.2751245631
0.0030695351
-0.0016185651
-0.0028060966
-8.6891640365
21.2427941788
-5.9673621977
-6.3474279548
9.0405224908
-0.5959548101
-5.2012728578
1.5300671793
-0.0136191230
0.0015704230
0.0050154860
10.8856554281
-10.0574943424
9.9601601152
4.6092587428
-9.7652898982
0.4944561077
12.8832233529
1.3880902204
0.0097914507
0.0001990574
-0.0048741792
-0.6688782234
9.7607203820
-4.8854031059
-9.2552057469
11.3931988466
2.2073715222
-2.1235558280
2.5589612859
-0.0120190423
0.0139908335
0.0090298578
5.3806557609
-0.3091808485
-5.0829990890
3.2376100293
15.3027186088
-3.6831258657
0.6735288388
4.3583958701
-0.0049196245
0.0159716868
-0.0062165321
-8.4239709869
-12.4239627776
0.4093912267
-1.9822909522
-3.0499448239
2.9499103582
-1.0982225318
-2.3087281017
0.0014759582
-0.0077128598
-0.0054080323
-12.4165182104
-1.8573746945
5.5610423621
1.3027283717
-1.9426157532
-6.6697107750
-1.2543204531
-8.6183356873
-0.0004859588
-0.0078552709
0.0031411718
-1.3126411744
2.9585731170
5.5481640460
3.4273095242
-1.7870510869
4.2460827578
0.4521818497
4.4583339070
0.0050367687
-0.0129003064
-0.0036923641
13.3444930606
-4.0880948933
-7.0640603123
-5.4731186682
1.6719623784
4.3572270895
8.8141741010
-3.9465096700
0.0117363672
-0.0056838490
-0.0013472429
-4.1290149339
-11.3573963552
-1.7698826546
-2.1227530551
-2.2818287091
-6.8945768774
-0.0853769988
-2.9972305132
0.0052921584
-0.0053166598
-0.0010150104
-0.9895237245
4.4954934283
8.4298488022
10.5647270087
-0.3389218851
4.6757882092
-5.2952796077
5.1710645653
-0.0175784378
-0.0078041547
-0.0092788715
-1.1929873418
0.2749688968
-10.9275509368
-10.7021681433
1.7268855764
-8.7899145736
0.8866132314
-1.8457047838
0.0048276587
0.0095243617
0.0050294154
3.9228607321
0.8630528641
17.9982613077
9.1380253482
-6.0074887699
-2.0096731886
-3.2971718647
-2.3284274417
-0.0144718692
0.0035515215
-0.0040437038
-8.6337450801
5.7007401345
-12.3587459058
-2.3006874993
-5.2408840469
-1.2664174505
-4.7719160001
1.4093065052
0.0004040287
0.0143266028
-0.0028170719
2.4872361739
-13.2849544017
10.0643923985
13.6051787836
7.9777230392
-1.7025839440
9.5228688081
2.4970904040
0.0245312558
-0.0121305482
-0.0113562469
3.8227250956
-2.8318455967
-5.1632544572
-8.7161285423
-5.3191892867
-0.1361860250
-1.6548701272
-5.9524861343
-0.0000599005
0.0011238478
0.0241419347
-6.8936775190
11.2285690647
12.1664997579
-15.4880950226
7.6182500571
3.4643539722
-1.6975168021
-3.4977227012
-0.0157451667
-0.0097683947
0.0129716646
-0.8820358812
-3.7785670946
-3.4286739211
8.9049247487
-9.3630790663
-3.9674957391
1.5853011284
2.9149649246
0.0052590616
0.0106226990
-0.0086253793
25.4072200346
3.6593337823
-10.6253883037
-8.4424594489
6.8738813973
-0.8272127716
-1.1341893898
4.2461684892
-0.0168125902
0.0097573509
0.0016596987
-15.7506488705
-5.8499847532
8.0134900422
3.2817181802
-1.6656478841
6.1535299591
3.6645438917
-5.7006131495
-0.0000136466
-0.0170209403
-0.0035175967
14.6211000557
1.1203457278
-6.9287470419
10.3673260118
4.9990412316
-10.0145033019
-6.0687759485
1.2378942691
-0.0014597185
0.0066434004
-0.0106402354
-19.0665346371
-9.7324489965
1.8963186497
-9.3816462917
3.8138658491
2.1907831859
2.5130358291
3.4337896876
0.0136859106
-0.0124189273
0.0100816643
1.0495035046
1.1145511126
-3.4343181745
-7.8050082904
0.7353936664
5.3781622126
1.1258293072
1.4713281039
0.0001857498
0.0003002450
0.0019870973
12.6708407539
3.3787294127
6.0483791406
11.9719814231
0.5625435929
6.3664878226
-1.6607691556
3.3207620274
-0.0004650126
0.0069650291
-0.0150788796
-6.6888458519
-9.8605097663
1.3816960071
-11.3814410797
1.9201403071
-7.9029314758
-4.0388763160
-4.3289498516
-0.0015042712
0.0041489675
-0.0010999774
17.2836647078
-0.4030271398
-8.3596267350
16.8553672813
-12.1765397668
4.9974830403
-6.7975316453
-1.8596430661
0.0019820785
0.0139849318
-0.0099534172
-13.5141132995
-8.6983266109
-2.0593650971
-16.4812119996
4.9140130319
-0.7035525205
7.8206581308
0.0133928417
0.0232738095
0.0058982474
0.0142983923
7.1488851142
2.0784333537
7.3407179694
5.3440361008
-6.8701023449
8.4528895866
-5.9636792604
-3.3993992924
-0.0065099476
-0.0020142819
0.0020090807
0.0035632254
4.6082760100
2.1680085857
-3.2046449264
-9.0408436286
-7.1161783817
-3.0628141022
0.5077180772
0.0051136994
0.0198040785
0.0077043902
1.2008311546
5.6571906489
-3.5832375660
-0.2234117469
-0.2654438466
-1.0654601348
0.1707555059
0.2601496154
-0.0170968289
0.0130205415
-0.0046194414
2.3955950207
-2.8451621665
-2.0326997070
4.0838328213
0.0577815872
-3.6564822077
1.3455603380
1.8489184430
0.0001748586
-0.0020268487
-0.0134657093
0.3951456242
-4.2514584289
2.3990521294
0.7222309382
-1.8624803780
-0.7394765513
3.8566621654
-2.1646284401
0.0131339460
-0.0026259944
-0.0052022597
21.2153690939
3.5977522427
6.8305963911
2.4957576450
0.0222296506
0.0098733139
0.0116094396
2.7161561606
-0.4946752169
0.2449678973
-2.2600559807
2.2290476167
3.1944522436
-0.6697584365
-2.0321579598
-0.0125596673
0.0070396864
0.0098170623
-0.0581812089
-2.3376944886
-0.6750375497
4.4845086869
0.3433483776
2.9907130257
-1.9151913239
-0.0592761626
-0.0197022747
-0.0027339591
-0.0029585291
1.0376401664
-4.0124262570
-1.4508076005
-0.5660154096
-4.8394429045
2.6656498063
0.3933645849
-0.7759845386
0.0269043782
0.0039473461
-0.0038814613
-3.7634753814
2.8070356231
-7.5706027337
1.3671544307
-2.9645195845
0.3529906539
-3.0283555119
1.3921232548
-0.0165593558
-0.0030592451
-0.0035467546
-6.4777557459
7.4109358814
-2.1806469974
4.1997318866
-5.2861914315
-1.9907998715
0.5500059050
2.2563740557
-0.0025559430
-0.0127009071
0.0056220942
-5.5435239529
10.5986495344
3.3440995094
-3.1566610629
0.0564782435
11.8450504097
-4.3412774096
-2.3630211112
-0.0056180311
0.0042079049
0.0108990816
12.7357206762
13.1072000398
-2.4902696827
9.4682916986
0.0277662991
-8.6155625128
-0.4920568618
6.5741250953
0.0111177065
-0.0011118060
-0.0100553590
3.2599828284
-6.6929931551
-7.1620551192
-2.2112561771
8.2263754092
0.1597138565
5.8851764736
-2.6258393851
0.0058415348
-0.0026294229
0.0034465220
-6.0224118600
1.0300546995
10.2568409525
-5.4686749837
-7.6227375261
11.8182317964
-5.5896873497
1.1906626593
-0.0146970757
-0.0073898124
0.0057510833
-10.6107432395
-7.5376379972
3.1615478456
-4.3974206501
-5.0569726043
1.4729506232
4.4310491137
-3.4018808949
0.0041883584
0.0100907001
-0.0054989600
0.7798043878
-4.5772176345
-15.5594652683
8.1546148651
10.1147759311
-12.7087030162
-0.7862859694
2.0472268002
0.0031183475
-0.0130746643
-0.0107557462
3.7082676170
-3.0827968599
10.5383497904
-3.8559874444
-4.5088098278
2.6487299458
2.8599393416
-1.2288203827
-0.0113824953
-0.0172985152
0.0063126566
-6.3250922064
-0.0733331085
-5.3960192073
1.4145211789
2.6387031574
-3.8502286422
-3.4488657774
-3.1067403692
0.0016995031
0.0022835941
0.0078734400
2.6173827121
8.1171258659
0.3425472214
-16.1586698767
1.7932323916
-5.1149751275
-0.5723214850
2.8222475646
0.0040121005
-0.0029395998
0.0110309567
-5.1391286325
-0.4901203114
3.1792973231
10.6502589772
2.5729149257
0.2529341380
2.5983857109
-4.2512475376
-0.0187298470
-0.0037480125
-0.0129281079
-14.1708437575
-1.7357107330
15.4079926389
-2.4398476943
-1.6447540110
-11.7037943322
1.2650546253
-0.3265428429
-0.0006606518
-0.0050858602
-0.0011475230
5.3461738518
-7.0038014100
1.5551591115
1.4169827523
-1.0210893520
-1.8925790894
-6.2037153482
5.8565472481
0.0119857048
0.0016799967
-0.0045614562
-1.1126934540
8.5303185167
-6.7612860398
3.2112907797
-7.9379012200
6.7604907561
-0.8852193546
-6.2616879683
0.0010385888
0.0130848903
-0.0001065577
18.2750388357
-1.1059974846
0.9489901465
3.9731824793
4.7590905694
-3.1392065265
-0.7441574836
-0.1503523578
0.0062546943
0.0057111619
-0.0048440543
3.1680225082
3.9582222788
1.1901707679
-1.4954288522
-0.0122255480
2.6160076772
6.8581386429
4.9106255085
-0.0047190913
0.0117061677
-0.0014348629
-9.8094079199
-6.6585851255
1.6414056124
-5.3335193704
0.1254048952
-7.4725262443
-0.9523501601
-5.2084644336
-0.0094223952
0.0055972134
0.0021498989
3.6689267501
2.5742289775
-5.2492248428
10.2850620421
-8.5206523622
-0.5518178699
2.8100419162
4.5450353640
-0.0059940820
0.0069734455
0.0033274618
-1.9105371854
-0.9706353198
-0.8567812122
-13.6011085773
4.2316553243
8.0150466782
-1.5050043162
-5.9681253581
0.0060243406
-0.0145938502
0.0077141733
2.0114669484
2.6109715261
-1.7166317683
1.7693331693
11.6866650940
-2.3480778723
-5.4234385789
-0.5332883792
-0.0087904463
-0.0110539541
-0.0123949584
-3.5075314059
-11.3553793825
1.0291742980
15.3565866747
1.7674188928
-2.9975500179
9.3819869694
0.9053015537
0.0054971705
0.0020586671
-0.0211787264
9.2935829311
2.6725566716
-5.8582486416
-3.8105833892
0.5119442035
-0.0557739438
-6.6079448483
-5.6093554543
-0.0028860619
-0.0124551047
0.0105086116
-7.9950024074
0.5247618299
10.4419175373
-7.5704004920
4.0939928156
1.7023943934
-0.0840490326
8.7397010488
0.0015221182
-0.0105089287
-0.0026404533
3.6640941894
-11.1335486940
-5.2898270100
10.0182773734
-15.7899362049
2.9189313438
0.5404613158
-5.4327450957
0.0224951888
0.0166289622
-0.0035655446
0.2077450847
14.9628552196
9.2994330322
-9.8539673645
6.7334468172
-6.0006960297
1.9249524400
-4.9740684482
-0.0122525832
0.0067086585
0.0088958334
-4.7993921689
-12.3709166276
5.6375253600
-3.3678478303
-0.9761530954
-4.0814296914
0.2171489430
2.7707659248
-0.0053481552
0.0044041609
-0.0024965442
8.5001643019
-1.1318597960
-1.0691956367
-1.7548216645
-4.1757841890
1.5466493330
3.8816784125
-4.5417492803
-0.0122763820
0.0042323435
-0.0029121880
6.2175851501
-13.0567789670
-13.1434737686
8.8713295069
-0.8409198069
9.3597454639
-5.4484314987
1.0079443140
0.0089244223
-0.0091622737
0.0007839676
-4.5776549436
4.4178317327
15.8216266180
-4.7192888820
10.0830910673
-6.3377696957
2.8958847834
-1.7980054906
0.0001563038
-0.0018801012
0.0068471720
14.9260238085
-1.2090104019
-9.6414486825
-0.5429756365
-11.9453222187
-0.8530134072
0.6938819589
0.7955230472
-0.0059158265
0.0235242750
0.0108457358
-10.6051214078
-4.8416592011
7.3811085585
-11.5098243480
13.3305362555
-0.1996101944
0.2497281792
2.0061029426
-0.0004878422
-0.0140181860
0.0037685376
11.1399955125
9.0140434365
4.8210596848
6.3898538547
0.9765455070
-0.9552589047
-3.1490022824
3.7169575152
-0.0311467990
-0.0068808555
-0.0122095606
-1.2082411755
-4.8091631769
-5.3326508648
5.9047284121
-3.6502776444
1.1662778919
1.9254198589
2.3966425917
0.0014142674
0.0076677103
-0.0134620108
-1.6714925997
-5.0940525958
1.5358996526
0.9412571944
0.5439311963
-3.6047878014
-0.3183100301
-0.7100826744
0.0176729257
-0.0028317826
-0.0084171076
-1.7435495290
-1.8129382596
1.5669468296
-1.6845790962
-2.5139208891
1.5276974355
0.6633333567
-0.0504215459
0.0047484838
-0.0035644201
0.0045535321
37.2176862840
-3.6984519703
6.1079472647
-2.1462385717
0.0026909006
0.0006871340
0.0036806379
-1.3480035848
1.4937528734
-1.5254641887
0.6974464127
-0.6843235116
2.4789269535
1.7504771432
-0.1977587799
-0.0061198070
-0.0094653371
0.0090955595
1.6918923943
-1.0043793682
0.4666576520
0.5178006535
-1.9625992672
0.6777622210
-0.8251730542
0.9162127368
-0.0006794378
0.0073893299
0.0000733618
1.0232283071
-0.2220349170
-0.1403616838
0.5525533624
-5.5707504548
-2.1513034664
-4.7255436181
-1.9760563916
0.0063804904
0.0146236084
0.0024094057
5.2622528161
0.4327668733
-3.7332398649
6.8048872261
-4.6845660876
-1.9105843988
3.0267619133
2.7939341763
0.0013566467
0.0103431828
-0.0104132665
0.5530626265
-9.9675786168
-0.6958752180
-6.7654271768
-7.6367044116
1.9840980081
-2.2550307906
-6.3288073437
0.0238328321
0.0012947441
0.0025666783
2.7903266651
-9.0164975896
-3.1417704930
1.5158750169
-4.4070079865
-4.2100816758
8.6595721948
-1.9785262948
-0.0045351997
-0.0019317419
-0.0104547389
-9.6992714397
4.1567395071
-0.2674440105
8.4457345177
9.3897667963
-5.1762895256
5.7747679668
0.4002216848
-0.0145613366
0.0058708155
-0.0040909402
-4.0324533096
0.7914383466
11.0634016374
-6.9012849540
4.9217230955
-0.6530581334
-0.7946021791
0.1211927762
0.0119252576
-0.0117934214
0.0048670047
7.5214610416
11.0392713471
2.6286257145
3.7436325645
-0.2116544181
-2.4029007366
4.7078355850
-0.8335575497
-0.0022859485
0.0099574425
-0.0011428398
-13.2494791148
0.5482081669
-10.8428865834
10.9986347983
1.8096728001
0.3992480101
-3.7323398109
5.1645595183
-0.0166021243
0.0043591821
-0.0094457175
2.3487179318
-9.5150158181
12.4729053246
-1.2736889249
-0.8866822711
8.7081023860
-0.0165511687
-5.4565031789
0.0124889619
-0.0207883423
0.0071191100
10.9549617367
5.6625296173
-6.2164557314
-7.1957821460
-3.7538420914
4.3934334922
-2.2967894365
4.0092736527
0.0141054746
0.0088731597
0.0140471834
2.7775430691
9.2251291714
1.5463473883
0.9783159561
3.4041768053
-1.1563812465
-1.4732131485
-1.2987723401
0.0045893500
-0.0071634824
0.0013468487
13.7051097054
-4.4663911028
-2.2108893244
3.2736171959
6.4407352308
3.3667238965
0.9218303950
-0.5309023377
0.0142644757
0.0059083541
-0.0010744294
0.6289547811
12.7202020285
5.6165483537
1.9604033622
-1.5762516720
-3.3733478636
0.2310814669
0.3519128137
0.0023416747
-0.0005504085
0.0095082332
2.5787613519
-6.2497068287
3.5406201657
-11.9125281094
-6.9568580362
0.9802841994
7.7869479619
-6.5108475870
0.0252241183
-0.0008951564
0.0123660949
12.3557967195
-0.3325294733
-3.6366138299
-1.8669931845
4.5087553968
-1.2387494591
-7.8245622723
2.3485829440
-0.0038995535
0.0053072961
-0.0014265365
-1.0747466426
9.1451454261
1.5917590384
-2.1783681151
-1.0608310152
2.2158753365
3.3638903616
-0.6026746372
-0.0139749156
0.0225275006
-0.0036580149
-3.5485636756
-7.1965878964
-4.5541057608
9.2396420850
-2.1412850741
-4.2598239612
-1.9395490876
2.0872432027
0.0048712627
0.0026499931
-0.0142425793
1.4838194350
-8.5563643037
5.6330790169
5.5938932684
3.0091203245
-1.6719139898
3.4348997483
-5.2665130110
0.0046220673
-0.0064368493
-0.0080617692
1.7996635649
-2.1735244592
-3.8463542833
-6.8609476240
3.6499513402
7.2423476306
-2.9937910465
0.3032985507
0.0031049865
-0.0162515325
0.0050201052
0.9568217038
-6.6042281760
6.2337245777
10.5377848776
-4.4148241828
-4.9408184712
2.6521973214
0.2914202968
0.0059542299
0.0115354975
-0.0053608068
2.4910381362
11.5023405635
-4.6296218431
-6.9894823154
3.0519098419
-2.8084503439
-0.0962316897
0.6706702417
-0.0157631696
0.0052722157
0.0144645720
9.2772330351
-1.3297801068
-3.0358823228
-3.0606478203
-6.5251263201
1.9132751665
-3.5439466159
-2.3053593858
0.0128023603
0.0024443247
0.0120685219
7.6202888287
2.1479995644
2.3219619700
0.1876263970
-5.4375094934
-1.3379672899
-2.5169168989
1.1892035111
0.0085760218
0.0202995102
0.0058488011
-5.6638620935
0.0379866644
-10.8504953206
-1.6353954586
-2.8989844112
1.0021588496
2.6517839944
3.0970422931
0.0106030721
0.0072773143
0.0044963503
-2.8111428878
15.5488553545
-4.3846594020
-2.9782051038
5.6790352468
-4.8068385510
2.5870407047
-7.2742074561
-0.0149233058
-0.0136978405
0.0091320966
6.9098607916
-13.6530823852
14.5752259155
-7.5553181080
11.3394411110
-2.3128807052
-0.4697754562
9.7455683977
-0.0048661825
-0.0160008882
-0.0017213664
15.9097209353
4.7410564856
-2.5088432010
8.2906812167
-2.7978914785
-2.0594495217
-4.8456672133
-2.9804210298
-0.0114298542
0.0109621306
-0.0001917000
-5.2488754283
5.2783773280
-5.1870766025
2.9828510417
-10.3391007942
1.7381268047
5.7092733382
-2.2896157242
0.0096494431
0.0093971166
0.0061068965
-0.1602140565
5.1290699583
5.3347875261
-5.8483661900
6.5811740121
-4.5858179025
-2.7013618167
1.7861385018
-0.0034419900
-0.0110188504
0.0131501702
-14.4591513407
-1.7041291792
3.8625745517
-6.3663040923
-5.6397889624
0.2547105377
-3.6779511876
3.7003576899
0.0064409781
0.0011894396
0.0065904390
0.3750401880
-2.8706185143
3.0590627017
-1.9768692345
-0.1219343121
12.3009008636
2.7165600352
-0.4001160468
0.0075530620
0.0091815970
0.0016348187
6.4826667682
6.7361306340
3.3074324596
2.8355205139
-13.3702604828
-8.9558659352
-0.6142938154
-2.3057462421
-0.0096425635
0.0130317419
-0.0001954108
-5.3143480266
2.7985845261
-17.2157717172
-8.5967093528
-0.0022009571
1.8504368229
0.0198860781
-1.5627053757
0.0052785655
0.0005933137
0.0021390041
4.1072667922
-1.3651765674
4.9586806486
3.5327121196
12.0079489591
6.3287310638
1.3229531570
-4.7056980434
-0.0016178661
-0.0190935312
-0.0205791701
2.7680703960
-9.2972130775
6.1808148186
4.4437665736
-3.2940201374
3.1103586647
-2.7523241237
0.6907022593
-0.0075970476
0.0101105890
-0.0140768882
0.7713874487
-5.7040439724
-5.4725995748
-0.1047983018
-1.7107579096
-2.9884010390
-4.8061569141
0.9528090191
0.0041916400
0.0063921330
-0.0030116285
1.9637821091
-3.4134390032
4.1854573763
1.5945913191
-0.4225038739
-0.0096857615
2.7162516121
0.0916040940
-0.0098250812
0.0066448398
-0.0098594539
14.3753396934
4.0605884984
20.5504568567
-1.8949252766
0.0257291775
-0.0088646971
0.0051372785
3.3978517186
3.9076423045
-3.0771648439
-2.3384499286
2.1738786855
0.8025092055
-0.8991717087
0.0305658909
-0.0153472460
0.0031769985
0.0200254347
1.7861255922
4.3422325259
-2.2652259008
-2.3880273785
0.6080511890
-1.6673785269
-0.9467860421
-1.2383578303
0.0137585369
0.0050400441
0.0085083769
-2.8581653396
7.7135379805
-3.1409499466
-2.2024720509
0.4894080424
1.2733715405
1.4842306367
-0.3466146824
-0.0068268155
0.0059851513
0.0110640359
-7.3922110836
7.3042615794
-2.3751698947
-7.0168051585
-6.6786712976
8.2367516603
1.9479420336
1.0396854276
-0.0038981317
0.0116698832
0.0201261310
-16.9527092648
16.1849586624
-8.7680598943
1.5963907690
9.1016381154
3.3020740354
3.8977746329
7.7376710966
-0.0234338673
-0.0006662504
0.0037631238
-6.8963049160
1.9824142718
-13.0801569521
-0.2060231716
8.8220541832
-3.1883255039
-5.4535996734
-2.7231254823
-0.0011897095
0.0040816726
0.0109840998
-2.7477990489
3.8269059910
-5.2384337201
-5.5743073876
-1.5670848059
1.5124195456
1.5142516408
0.4482622607
-0.0072932222
-0.0193568816
0.0050197233
11.4856295597
-7.3169479968
10.0392047982
-2.3624245426
-5.2826584759
0.7942106090
-0.1921709307
-7.8468438951
0.0121781338
-0.0077024614
0.0013841214
0.2209732453
2.8476759225
10.8787369051
1.2808143176
-9.0290102745
-5.0873480249
7.2791751897
3.5733786129
-0.0055640439
0.0005532418
-0.0133455405
2.2663582992
-10.2946306283
-2.9514535629
-2.3114499319
-1.9064890601
-6.0453747823
-2.6578947005
0.9111684180
0.0202062281
0.0049050955
-0.0004659470
-1.0495291825
6.8433327071
4.3279156138
-5.0698530244
-3.8432441185
-4.9248016658
-0.6126662601
-2.3586749692
-0.0146089156
-0.0092447791
0.0016906322
-1.9959977945
-13.6349047533
-14.0416597193
5.6988322111
7.9339170846
-11.6642500458
-2.5752812041
-1.1712562539
0.0001216097
0.0089111884
-0.0140556906
-8.6950892080
4.7305892325
-4.8031396613
-7.4354035789
-1.9531894347
-7.6783490161
-3.8153752666
-0.9529758954
-0.0125765867
-0.0127645075
0.0062300799
-4.1357909722
0.0201189609
3.4338958387
6.8296459146
-6.8756390693
0.6346798482
1.0289752017
-0.3741793200
-0.0182953039
-0.0076022769
-0.0065737196
2.4216930673
-5.7940750691
5.3356812948
-2.4107222725
-1.9584957865
-0.1722299268
3.6042527715
0.6517514019
-0.0002249558
0.0018963458
0.0039996581
-13.0849060993
3.3658993023
3.7376932333
-4.3319226857
-0.0130517470
-1.0788500921
-2.8298100027
-0.6081913191
-0.0142383314
0.0034991567
0.0034126691
8.6897284556
-8.4447648412
-3.4563024605
-4.8329665564
-0.4991889139
3.7653008264
0.4803693344
3.8639525416
0.0170567712
0.0028166346
-0.0042742678
-7.9213463640
1.3229563373
2.5858105836
11.7654516295
2.9641541041
-2.4308417479
1.1460224777
0.1985415842
-0.0149427299
-0.0003544142
-0.0103186422
10.4317356751
2.2762954420
6.3750941003
0.4417101545
-3.6367927583
8.8267305501
1.5902162675
-3.5539820224
-0.0074403280
0.0025783269
0.0057515192
-1.2744430118
-9.1932930613
-13.1523214136
-6.3943401082
0.1730263320
-6.2680004441
-6.4207956330
3.0051304900
0.0108314938
0.0073629591
0.0088317819
2.4516332254
11.3145264300
8.6581833075
2.4823172549
-0.7017212797
2.7591711409
4.6661732618
-2.6587915006
-0.0049431635
-0.0090508282
0.0030964437
1.8842900830
-5.3072168121
-0.0028332961
-1.6974862524
5.2441447522
-0.2037136910
-6.1718957884
-0.0472400644
-0.0035557605
0.0027907974
-0.0000467487
-7.7095683768
4.2561877716
8.3308136278
-4.1681438243
-1.3937911013
1.2457189359
4.7877166182
-2.4322973023
0.0060675031
-0.0042226391
0.0062488817
9.8434973201
0.2771383491
-2.0758056246
5.4045123210
0.1020419319
-2.8828801682
-3.0640803883
0.3946036447
-0.0135858427
0.0115456085
-0.0098173910
1.6583632062
-5.1437926039
-3.7017836423
-8.0175068159
-3.7803588629
-7.8207847155
1.3438090123
-0.7024268952
-0.0033168364
0.0127427204
0.0026748708
-4.3023224637
0.1866246631
0.8658553709
5.3583647238
9.3988164217
0.5646231431
0.3245495342
3.1448267504
-0.0181003340
-0.0169248002
-0.0080573552
3.0938827779
-3.4714817065
6.8609165890
-4.9640852648
-0.2279539276
0.4164734292
1.1095011436
1.2487830976
0.0099955541
-0.0113428730
0.0014154963
-8.5592751305
1.9569460176
-4.1774141668
-3.0944377838
-2.8986047041
-1.1908753610
2.4356231560
0.5570025259
0.0020634262
-0.0016160320
-0.0075700781
5.2643710526
-13.4580550302
-11.0319082636
14.5241924526
1.1339541983
8.9549552099
-5.0918693641
5.3092788105
0.0067874614
-0.0101791398
-0.0125069108
2.6900795605
5.3117893177
10.7221975159
-11.1596200276
8.4925248307
-5.7826931966
0.0735216585
-4.4420693335
-0.0001053737
0.0053640037
0.0031078657
-13.7138587899
-2.0631157229
-5.4616763162
5.1186886604
-0.6556305471
11.8782581160
1.5311838781
-2.4433771409
0.0026472237
-0.0037683191
-0.0094490743
4.9023267912
-11.5963522537
13.1876162368
9.0121919020
7.5643095019
2.2646084372
3.1418501689
2.2736940670
0.0005261953
-0.0049443801
-0.0158482686
7.7903893851
-8.5068618292
-10.9087525237
-14.4297766047
-5.5292846719
-9.9403565247
-0.5991715297
-2.0431062875
-0.0082166435
0.0073988418
0.0140602508
6.8218898217
-6.0354191371
13.7813206877
8.6742287001
4.2388171448
4.7511274720
1.3825931613
3.5667399247
0.0035719970
-0.0077888743
-0.0069194671
1.6757687097
-0.0970956704
-5.5604687665
-8.5019861142
1.8272324360
-3.9929342923
1.1501577682
2.9057872455
-0.0080776562
0.0021539264
0.0190698399
-5.2555765530
13.4126805693
5.0971680458
-3.3312742472
-0.1708088042
2.1596496403
-2.4998839724
-3.0647360784
-0.0008942496
-0.0180622360
0.0236186175
-0.0527978821
4.1042047502
-2.9264802607
-4.9837352158
-1.7934899022
-1.4658415736
-2.1497964412
-1.9205350791
-0.0012767640
0.0165409717
-0.0014765728
-1.9952357908
-4.5358844707
1.1769806720
1.2532983487
-3.6270553715
-0.5906865012
2.9731736313
0.5945784868
-0.0025878813
-0.0023357458
-0.0105405037
9.8251603527
-4.0315659690
-3.1203765216
0.3155882010
-4.8970852940
1.4777960605
-1.9088079807
-2.0839165947
-0.0118467410
0.0102108145
0.0012523916
26.6068758993
-1.7347490088
2.6311571315
-0.4779450922
0.0242331669
0.0076756706
0.0005368065
-1.6123102007
-0.0499836299
-2.6382504820
2.3806844664
2.1197165280
-1.6364902338
2.0242041473
2.5926921727
-0.0186349020
-0.0109526630
-0.0041926458
-6.4034291695
0.7271700192
-3.2078005697
1.1029866552
2.5619789560
-4.1426675372
-2.4834580527
0.3165973415
-0.0054745201
-0.0132651758
-0.0076994962
-4.3581848757
3.8049408160
-3.1243068392
3.0743740213
-8.6557775765
-0.2726631718
-1.8270511085
-1.9779756773
-0.0020011747
0.0001229303
0.0042099392
-1.7296250553
3.9486282147
-3.6982886092
7.5863416965
0.1935282994
-9.8163948871
3.8942423569
5.0420465786
-0.0010594020
0.0045102569
-0.0191945152
-5.3011470309
-9.8707525323
-2.2690374241
4.5663716109
-7.6242221404
6.0209161870
-9.5227648136
4.3693429631
0.0108842156
-0.0175398459
-0.0062538747
4.2492274741
0.1659893868
0.0749786351
-1.0305518815
7.5962669374
-4.0582728673
6.2621678284
-4.9012965302
0.0087723063
-0.0094575957
0.0131997154
-3.8594468169
-3.0289878356
-1.4836960452
-12.8866835767
-9.0727901946
18.0216614851
-2.7796411947
-2.5774837609
-0.0031306960
-0.0123203375
0.0185430549
-9.3021515576
10.5603534963
8.6175983792
4.6144322363
-0.4471979188
-6.4180210036
-1.3932309594
6.2690576138
-0.0225449827
-0.0057174453
-0.0098613665
4.2616869919
-3.9690104656
-8.7482260163
4.6949967048
4.7591967195
3.0844603547
-2.6609855780
5.3907366245
0.0061955843
0.0182406924
-0.0095024234
9.5460740846
0.6221286673
4.4701581571
7.2485459253
4.6752557274
-2.6645627705
5.9043503091
-5.0724304732
0.0031462353
0.0043684764
-0.0028932369
5.2771795234
16.8010169771
3.4808289285
-0.5783704412
-4.1249462999
0.6331931460
4.2771436080
5.5234102530
0.0048713446
0.0077564313
0.0075012541
4.7654884799
-2.7091540554
2.9323048895
2.1706971929
-2.2457896027
9.7265459561
0.5408703346
4.6148063497
0.0056664979
-0.0051120959
-0.0004065653
10.0340926520
-9.3722496554
-2.1960160348
-8.8324290288
1.8386619157
6.6873007780
-2.6442190666
-2.2779020887
0.0197293634
0.0007346204
0.0105614162
7.4951930832
11.8967466156
1.5151147252
2.7070304473
6.0368951104
0.7516465485
6.0459054142
4.0549993525
-0.0007980972
0.0162002818
0.0055213009
-2.5781127186
-2.7409759866
4.6166896675
-6.2067505908
2.4739466253
3.2197753023
-1.7164766399
-1.1611603933
0.0015611206
-0.0004908527
0.0069122693
-5.0671132866
-2.5414620075
-9.8090857237
-3.4016277505
6.5221855814
1.8437354879
1.9816972634
-0.0460766421
-0.0013355930
-0.0076052269
-0.0012954179
0.5812149578
-5.7377923960
6.7299619581
0.6344787326
-0.4480507970
0.4991271450
0.0258950405
0.5945151116
-0.0119375817
-0.0023745416
-0.0020660623
-0.0047490284
-3.3852819298
-1.7120136247
-2.1038932214
-0.3740593527
1.6312634449
-0.1205848092
-2.7790718547
0.0021847042
0.0015060493
0.0088509491
6.3992100248
2.8845554626
6.1387849171
-3.0485338191
-0.6677015664
-1.5402169627
-5.4430966007
1.3589251473
-0.0037644321
0.0129931678
0.0022015920
7.2724842372
-0.0778462117
-1.5011230030
6.5369582474
1.1645275054
-0.3676395085
2.1997119300
0.4487393287
0.0119273630
0.0167171922
-0.0073998657
-6.7419250612
-2.3262496383
4.2817779248
-8.9495573650
-0.8449159695
0.0001749581
1.3711596142
-1.7952132269
0.0022796354
0.0052948062
0.0086936807
2.1158324568
-4.6326928880
-4.2513864568
4.1202081474
-3.7044517508
3.2838683611
5.6401802170
-5.3426602714
0.0101685017
-0.0003029692
-0.0015806896
15.5455393463
-1.3778149285
-0.4180126299
-1.0278377595
-2.4392375826
-4.1771311904
-1.0066073918
0.9485359269
-0.0045527435
0.0135978887
0.0015036953
-9.0553526970
1.0794887973
-9.3070443631
-1.5189300583
-1.8263353044
0.7831178971
0.9989496138
1.1337955438
0.0018090003
-0.0046958639
0.0041583086
1.0799036651
9.1546465799
6.2513324337
-0.3703492449
2.0501584324
0.4733168826
-2.5738536659
-5.4603694641
-0.0025869834
-0.0135332652
0.0022020403
-4.3503837028
-3.1283511286
-5.7809324166
-0.2261587296
0.8552265141
-0.8443381386
3.9876758728
-2.5861166988
0.0205012180
0.0028850626
-0.0059043018
7.2907439810
-4.4730492050
0.4603764217
3.6275268675
7.9658253401
-5.4921527224
1.2307282117
-0.6458074543
-0.0085298535
-0.0035167290
-0.0120101099
-6.4596828174
7.0684490420
0.1780379412
4.4650992267
8.5382717943
-0.1591434217
-2.4761171434
-3.9637405867
-0.0132783555
-0.0193033491
0.0004281870
-5.6239604989
-7.6197268588
15.1379557066
-3.8794940918
6.0429863074
-13.8313787047
5.3332777399
0.4992668125
0.0207849905
-0.0035574447
-0.0005548183
5.2312675534
-2.8145238143
-1.5489926684
-5.5328722967
-6.5801332664
-0.3151157485
-2.3629215960
-3.4716245581
-0.0025889763
0.0067479038
0.0184127958
4.8994040346
4.8053461584
-5.8422443996
-0.9136363840
-7.6398804363
-1.7509796408
0.8416601447
2.7416137000
-0.0146653458
0.0093321934
0.0071377592
7.9634634646
4.8374751028
0.4654063447
-1.4963549751
6.1880087428
-2.9959121272
-0.1188309802
-1.5501491085
0.0021075262
-0.0008307584
0.0050572412
-12.4086100453
-1.0455624428
-3.5775666498
-9.2054403068
-3.0431618566
-8.0392011685
6.0842864745
-2.6701491711
0.0203968038
-0.0037536222
0.0091492443
5.5093904691
2.2639865236
0.5009074819
3.4524533337
10.0822455724
0.1820999530
-1.9367162164
-3.2282631596
-0.0121846422
-0.0052111767
-0.0023823591
-3.7574805874
-1.6964605705
-9.0720304485
-1.0995998042
-7.2900750770
-5.4768897856
-0.8554565340
-4.2771580516
0.0130628456
0.0000878762
0.0005673250
-14.5926431517
-5.8269942691
11.4928849347
-0.5169045887
1.0663966008
7.4904918099
6.3978152037
-3.1388446935
0.0003201914
-0.0080715413
-0.0002307356
4.8689617584
-5.5434741180
-10.9045683956
-7.2432895614
-5.9077527488
-5.3024907195
1.6726353151
3.5471014420
0.0106391040
0.0107107816
0.0115451930
-4.4656956997
0.8993408322
-1.7288381227
-1.4170953559
7.2111274059
1.3533479696
-0.4511215176
-0.1314421154
0.0004411164
-0.0064240568
0.0010177434
-5.7866124720
-1.6855615105
-0.0062707367
-1.0782533275
6.1186904185
-4.8129948511
2.0051610712
-0.7485277933
-0.0018163712
-0.0112244284
0.0045372176
24.9433457477
-7.3941371826
5.7795194446
3.8598558367
0.0093503235
0.0003448233
-0.0004385508
-2.6121508608
-0.4367456109
-3.3676933561
1.5223411781
0.3432278919
2.1904820214
-1.0459938902
0.8071824854
-0.0188338725
-0.0098956054
-0.0015077821
-11.6969495004
2.0335747257
-4.7546973207
5.0805646860
-4.3862348803
-0.3833055605
-0.7367095431
5.3696078507
-0.0067105658
-0.0185399528
-0.0100238980
-13.9557987384
6.0700506250
-7.6022668623
-2.3689690709
2.8155769522
9.0976678153
-2.8604508948
-0.3071454231
0.0028759329
0.0048987705
0.0116953277
-16.6326519219
7.4581927441
3.5056367213
-0.3064302482
-11.1354936174
-3.4372634528
-6.7151980223
-7.4436051345
-0.0081406647
-0.0003263517
0.0114183665
7.0391677678
0.8532018622
-5.4870997280
6.0844453690
14.2102902661
-4.6231903199
4.7909730294
-4.3905912708
0.0060505509
-0.0026094040
0.0007996190
-12.4700537453
15.8281256943
8.4250062734
-10.6001607409
-2.0731277293
6.2788113383
-2.3131037255
6.8109028276
-0.0099817137
-0.0189008404
0.0132994291
14.5302995428
-2.7682486053
-0.4404048517
3.7280655382
-0.8037826677
-10.1039963287
-0.3066594609
-1.6643838198
0.0180099861
0.0109391844
0.0020466404
6.9328900973
0.2076617741
-4.1030244437
-5.5315001885
-1.9299538553
7.4282815166
-2.8880528373
-6.7432930132
0.0044639499
-0.0017168429
0.0133485985
-4.9128141943
-1.1821567223
-8.0839190357
-1.2275657316
6.1188331031
3.1136161144
-0.6579771360
3.0907945024
-0.0138612503
-0.0006522848
0.0025971002
-2.5825121906
4.2217982205
8.6133296807
-6.5173419727
-9.3959848717
7.6499781738
0.7168616218
3.3506825086
-0.0033498845
-0.0062980527
0.0124769164
0.5526714298
-7.4098907053
0.7844343222
-6.7453617054
3.9437852078
-1.5037171354
-3.7679158510
2.7561757106
0.0027796637
0.0054348901
0.0015165789
2.6564938639
-0.8573167106
-2.5162571417
-2.3642856714
-5.2273666459
-4.8517192608
2.8358095699
-4.3058312261
0.0019871893
0.0070104870
0.0114971659
4.3476457557
4.3800816298
-14.1127908356
-4.1961354760
7.8199916399
3.6433247456
-1.3767453989
-6.0803866390
-0.0102971129
0.0006771414
0.0101614674
-6.4862566444
-5.5313882713
4.9999586434
4.2791836918
2.2070598660
-2.1178885838
1.1012397478
-0.3719621777
-0.0112793878
-0.0141574263
-0.0086001694
3.3427112672
2.2135715701
-1.7128058134
3.9019848712
-5.2963668505
0.2123930173
-2.7713154950
-1.3741429853
0.0107912888
0.0009571331
0.0032601936
3.4988633658
4.4754914700
0.7739549041
-2.5452244525
5.1261263854
-2.3814054855
1.7331572686
-1.3030597724
0.0069466887
-0.0094507314
0.0080429800
7.9652421243
-0.6759848686
-1.4650576520
-2.4236670312
-5.2890940275
-0.6509808185
4.9226645649
-3.3891465485
0.0126758849
0.0024535889
0.0073778511
-4.9310628273
11.8910294922
-2.2472873411
1.8452812469
2.4928201890
-1.2093795721
-1.1470300057
2.0564989052
-0.0182069804
-0.0086155729
0.0029793397
11.3387137547
-7.4344853611
-3.8214608221
-7.6873845121
4.9444496303
-3.7406027941
0.2765915228
2.6874240703
0.0066718646
0.0074351751
0.0002500210
-10.0051869981
5.1578637039
2.1477791697
4.6487918135
2.6583344459
-1.8222765277
-1.0070331863
-1.2346614651
-0.0213004593
-0.0054662487
0.0022999282
5.2194301098
-3.3898824534
-3.4502245334
1.3290178641
0.9492529407
0.6283040940
-4.9846479543
-2.6573740421
0.0031287046
-0.0018261771
0.0053187114
-1.3857259036
1.4522739647
7.3809982170
-6.6138437279
0.4220798989
-0.6271046221
1.4081035043
0.6940392945
0.0050943385
-0.0001304877
0.0090920569
1.4443218950
-2.8124110722
-4.4174902314
2.5355954837
0.9578724341
1.2614134811
-0.1484303206
-3.4025401401
0.0063814659
0.0038160244
-0.0026710528
-4.1376714718
7.8722121464
1.1056125441
-0.1293405744
5.5149914471
1.0029548832
2.3948462985
-0.5823775606
-0.0121484435
-0.0138983167
0.0032489420
-3.4916274068
-5.2004268876
8.9429521304
0.2165105566
2.8095033733
-1.5390892706
2.5988812019
-1.8640917477
-0.0030255050
-0.0132456915
0.0020886358
12.5687032991
4.2129819898
-4.6266059860
-5.5763438421
-6.4656816317
-2.0724515367
-7.2309362548
-0.9488849061
-0.0144133634
0.0147871191
0.0091998866
-4.9723584873
-8.9916111804
7.5125281904
0.0576983413
-1.9168199028
1.2611192192
0.2065152742
1.8492831355
0.0288483510
0.0058167244
-0.0064086368
-10.0783626225
3.2677418314
-4.1290135558
3.9271796209
-8.3379415275
6.7207762527
4.6469385495
-1.1579798147
0.0019478817
0.0130788620
-0.0015275639
17.3818645482
-4.1447029727
3.9277639946
-2.6992865813
3.6823865447
-4.7742353001
-1.6351730371
-6.1868634921
0.0070785040
0.0103005677
0.0002326085
-5.0735047381
0.5659131726
-8.8554416228
-3.2697990996
-2.4506010443
-2.5239806985
1.4879217509
3.1219549690
-0.0129100120
-0.0029731692
0.0078745510
5.5324143085
6.3551211131
10.3121780892
4.1785445948
2.8670657350
-4.3265225761
1.0497274061
-2.0209636772
-0.0124391726
-0.0069078516
-0.0049726073
6.2873464206
-2.3354295724
-7.4948887569
-10.5407336231
-3.3295584429
-6.1710590022
-8.2493949385
-1.4831448995
0.0014756939
0.0067572899
0.0122601087
-10.2296058667
-7.4648177749
6.3748698032
1.9167324552
-3.7032434251
9.4836120602
0.7589434673
-3.5758138517
0.0102602877
-0.0012913667
-0.0040766676
-4.9672736599
-3.8944376166
-7.2462538941
8.1914557019
-11.2510882917
2.2893891557
-0.1961299486
10.5932399204
0.0157479431
0.0142368793
-0.0059949191
2.0495021770
6.4444996140
-2.8761162416
-2.6473363059
12.4478869467
1.2031219192
-1.6634795706
-2.2037345202
0.0027804399
-0.0066492072
0.0128255313
-4.1170222752
1.8639433554
5.8939854426
-7.1237731931
3.4094407207
-6.2487735403
4.4781753908
-0.6974591870
-0.0047420095
-0.0003538767
0.0116326093
10.9843694151
4.2187027521
1.9999722470
2.9486871777
-2.2994383025
-9.2861501420
-6.1828782053
-6.9135431144
-0.0159672450
0.0086558324
-0.0059521665
5.1022751650
-10.0755982657
2.8534951104
0.4028231327
1.2367208958
-7.2695240099
0.9362828575
8.6817374414
0.0004162534
0.0082624310
-0.0148096302
6.4974333164
-8.7718216680
-2.7757623076
2.5947977003
1.4674093824
5.8532953049
-5.1051108984
-1.6680376044
-0.0108982903
0.0028795632
-0.0091725681
17.1712466337
18.8656277393
8.0504795076
-5.1751968273
0.0355223915
0.0023785178
0.0122941205
0.5399428985
-1.5766802527
-1.0958700855
4.7639700858
-1.2350607552
-0.1344227964
-2.6164960484
0.3073684284
-0.0093945983
0.0057616009
-0.0031888857
-3.4741007242
3.4207206141
-6.0521364093
-2.0868667842
0.0547504754
-0.6290084724
-0.0855968559
1.6610978704
0.0212460667
0.0034852267
-0.0013292846
1.1633440929
-2.5955826818
3.4741480805
0.1339663095
-9.8546387300
7.1651077834
-4.5544115454
-1.1694113433
0.0073464923
-0.0063223124
0.0041196628
3.3332396495
-4.1324899085
-0.5063789500
-3.0927534127
-8.4490812873
4.0214143719
0.2211219011
-3.8150286145
-0.0008342708
0.0090332368
0.0066160274
11.2098038876
0.1476374172
2.6580093454
-1.1991569734
-9.2437659098
-14.4971654735
-3.1818803597
6.0760450987
0.0204049762
-0.0100161934
-0.0131028893
4.1695315263
-10.4071661345
1.7462149328
-2.4430262209
3.0686446438
4.3477853306
5.9414056329
-6.7806085581
0.0093218343
-0.0034876669
0.0097918568
-8.2400765393
-0.9554961680
-6.9593471789
-7.8128502752
13.0193133185
9.9361518200
2.1728369059
0.7487820470
-0.0197478674
0.0006428408
0.0100723714
9.0783929049
-4.5441137155
8.0714189982
-2.7847221610
-0.6333266614
2.9633426431
-0.5219246003
1.8502368523
0.0046119724
0.0079413474
0.0038835673
6.3340933945
-11.5261167609
4.0593728418
-1.0405184571
-9.4312979892
3.4960252388
-2.8981253556
2.6335353412
0.0170892304
0.0000776542
-0.0055479727
-3.9030939177
-3.0023406661
-4.8282452603
2.2316572370
5.3368878392
-1.4509640625
3.7766488482
-5.5608215535
-0.0083856743
0.0055689800
-0.0003470455
3.1231427181
1.4999225534
7.6935175545
-2.1808615635
-0.4223804025
1.7653255863
-0.5446708527
2.5645539299
-0.0041189732
0.0005392410
0.0076324319
4.1718000209
7.3208951203
-3.4389955755
-3.1316910651
0.8219447826
-2.2940108268
-2.2346762857
-0.0002920648
0.0143557829
0.0144162572
0.0074447876
0.1326518918
6.6377565499
4.8595147647
1.2837455680
-0.2703652450
7.4563836208
1.9405041413
0.4230487526
-0.0128948423
-0.0152112956
-0.0067049740
-6.0243795082
-5.9226119660
1.3641070164
-1.2978237306
1.9629422353
-6.2715366717
3.2600191521
5.1988627563
0.0113009192
-0.0101797263
-0.0146339514
1.8762308567
-5.3383865236
-6.2757560070
8.1610574073
0.5457988321
-3.4772202677
2.8056450968
-0.6260864120
-0.0113743658
0.0057550962
-0.0141600039
-4.1814492811
-0.2221006244
7.8013000366
-0.7771678774
-5.3849799928
0.2598620808
0.5289109196
0.7403892722
0.0030386272
-0.0081585432
0.0041523908
0.7565479169
-0.6293247664
-7.7151525331
-0.2516476567
-2.9294241557
-3.1631294026
-2.7567245952
0.6406861462
0.0026196878
0.0091258579
0.0058969659
3.0966455503
11.2922669401
0.4612151326
-4.9938057133
3.8287156833
1.2561358454
-3.2145642009
-1.1068779101
-0.0144081192
-0.0121674742
0.0045883197
-2.6558436556
-5.8780509792
1.7338910402
4.6891688927
-6.5498851616
-0.4967819675
1.8008787712
2.0622899989
0.0138103123
-0.0049348372
-0.0100723873
0.9744905652
1.5365928190
6.0049074186
-4.8314282905
-2.0463239994
-4.1927482448
3.5716262857
0.2919241924
0.0156168996
-0.0041317079
0.0101647550
-2.3664832884
6.5878268367
1.2350207131
0.8263792840
-0.7288838089
0.5737970745
2.5148459528
-0.6580711846
-0.0091248593
0.0032020495
0.0081269199
-2.1268906151
1.7033337851
8.1976349489
-2.0094274167
1.0625996971
-1.1149475824
-1.5977999610
0.4747256535
-0.0113623489
-0.0010548025
0.0099787033
4.8405955743
-0.4850478535
-6.4213921973
-9.3817866375
0.8235713761
-0.2165740272
0.9523881487
0.6937108076
0.0004258526
0.0081462050
0.0129223266
0.9280028967
2.3647577582
-2.0558736498
2.3086526839
-0.7904789149
2.3145228084
-0.2682534349
-2.5698636494
-0.0066246077
-0.0038827360
-0.0015623124
-11.2334168147
-6.4153611864
0.3736341459
6.5248921912
4.6151069873
3.6606263126
2.9411379138
-3.4141218320
0.0105801144
-0.0172814139
-0.0072405577
5.3185650010
-0.7262212900
-0.9099991838
0.3403212105
2.5910070816
1.6014773843
-1.4531094812
7.1858045947
0.0020155159
-0.0058617916
0.0022545571
3.6552347182
9.2610015805
3.1019925624
-8.5101227294
4.3281088217
-3.0318045204
0.8440674867
-8.7950923870
-0.0062504259
0.0034307757
0.0224074469
2.4764522971
-2.4439148806
8.3227875642
-2.3472751378
-3.7459853185
-0.9624891196
-0.5881913921
5.3659359588
-0.0012170919
0.0120039114
0.0086204652
-0.2483753749
3.8662067540
-3.3138140273
-7.0493891515
-1.1345743762
5.2342543786
-1.3333363413
-0.6166537024
0.0121814400
0.0104218112
0.0165790173
-5.3018391114
8.1261477220
-1.8970149026
3.1239140359
2.3500369256
12.0231821025
-2.2096075085
-0.4608992500
-0.0069418730
-0.0036980305
-0.0075361287
-12.6866709927
-3.1993224835
4.3489283678
2.2089377122
6.5580734159
6.4983671921
6.9805363943
3.1279353491
0.0118663563
-0.0087283265
-0.0044652963
6.6550183693
1.7155635661
-4.6610192482
6.8400285410
1.4240872599
4.4834318977
0.6975074534
-5.6726847652
-0.0087221372
-0.0030614552
-0.0033786579
7.6902876824
-3.5034341803
2.7661466768
-4.2389900616
-0.0991871982
-11.1025611750
-1.2126575458
6.0466101430
-0.0033717452
-0.0026594011
0.0079945462
2.4382923584
17.9295079711
10.1981943470
-2.6269090236
6.4287081690
-3.1197276598
7.8591368884
-9.2937490205
-0.0169076297
0.0089918742
-0.0028060704
-1.7671073081
-11.9688972788
-4.3510853587
2.9887832167
-8.0363351775
-6.7266433468
-3.5023790844
-0.4016116015
0.0101590449
-0.0032263807
0.0004555642
10.1221172132
1.8580320841
3.6388370747
4.8496317929
-1.8090062359
5.2321464156
-1.0483884395
4.7876017469
-0.0085444889
0.0061967847
-0.0133948598
-5.8613173808
0.2267619808
4.3410168308
5.5583006249
-3.4080608136
0.8597446192
-0.0710373518
1.8486438750
0.0050159936
0.0060468886
-0.0135585757
0.8087871151
7.0943095687
-4.6213695471
3.6926267363
-5.7167066840
2.1824927895
7.8549168575
-3.5307081051
-0.0048717913
0.0071257989
-0.0135447962
4.3325388673
-4.3295097406
0.9297456121
-5.5905215125
-1.1982361292
-7.5551996723
3.0573657768
1.3862317080
0.0093187132
0.0008805288
-0.0039720999
38.4648665130
-0.5263634902
22.4317208125
2.0460893938
-0.0017056218
-0.0108783681
0.0242261457
-2.9397734338
-0.1509947153
-1.2787019693
-0.0284419590
-3.1158112896
4.8654472984
1.1138280549
-0.0345162048
-0.0127463091
0.0017655681
0.0056661736
-9.3690704664
3.5003461956
1.3747924237
-5.7273907471
-4.3606298867
5.4597896286
-3.8915011640
-8.7684039059
0.0077655049
-0.0012691099
0.0222912364
-6.8700201162
1.4885975223
1.8826894536
4.1483415989
-6.4438663145
-14.5226051536
4.6731815654
-3.1600932773
-0.0153515548
0.0027803210
-0.0018314024
-12.6827337768
12.0887238977
-12.4843949180
-3.9535167123
15.2228789478
7.2407171161
-0.1790555440
10.6598345470
-0.0112283310
0.0094019885
0.0015083408
0.3294607784
-5.2397612890
-2.8539161598
-1.6990192333
10.5973948477
16.0989683703
8.0983119157
0.0846701553
-0.0036903538
0.0084243736
0.0013498316
-11.6824933673
11.4958890352
5.2771511964
5.9541498317
-3.6359561283
-7.6373618192
-2.4744420110
-0.9060635470
-0.0049972682
-0.0088651111
-0.0040712423
-3.6839841979
3.1331705021
5.4582885627
3.6667523599
-13.4688842471
-0.2897663138
-2.0136607019
1.8854148578
0.0046966976
-0.0143356695
-0.0055921232
0.4227269647
0.2801777807
2.4193080477
-1.7763826492
-10.1398047104
1.2409316740
6.9265798635
3.2362919167
0.0014558658
0.0018713167
-0.0090496823
-5.7975077770
-4.1859834339
-1.3081121678
4.4375323090
2.0255542513
-11.8916879615
1.0042313231
-9.6799246796
-0.0049349261
0.0177582986
0.0052432143
-10.1643118336
9.9241592626
3.5937491013
-2.4556565679
-0.0882392732
0.7258735382
-9.5629871803
7.4966180977
-0.0185029054
-0.0116220654
0.0061423627
10.8199349836
-11.4244183025
-5.2785710077
-3.1594890666
-4.8033141724
8.2974529858
0.6139844308
-4.1619323290
0.0194285329
0.0053543847
-0.0005885275
2.2871009141
1.4405546183
-0.1150657613
-6.7541841233
5.6520735745
-3.9742107757
1.9192839378
0.5267380141
-0.0053769457
0.0038653710
-0.0012147685
0.8500156252
-3.3857746149
-1.7532164530
8.9652355781
-9.2270625982
-6.5678849836
-1.7980551942
0.5152480113
-0.0074281030
0.0029314358
-0.0082870676
2.5989480893
-9.0189427345
6.9027579637
-1.5637763551
-6.0894275078
5.3770627280
1.5273573651
-3.3073922517
0.0224539704
-0.0058201988
0.0071346889
3.1214846606
4.0693225024
-3.8419294271
-4.7810434452
2.8665072656
3.1115406798
-0.7461276294
1.6891636148
-0.0043767947
-0.0078768723
0.0005403101
9.8731707228
-6.8874597201
-0.4973759657
0.4014789332
5.7378487288
-0.8602953800
2.6601821268
-1.5168964601
-0.0050586115
0.0073199243
-0.0093964988
1.7902713697
-10.7349741879
-0.8696539142
3.2784081014
-3.0442617250
2.2143891798
-0.1909631703
0.7863234775
0.0082733267
0.0087267357
-0.0102989237
3.6504239543
-3.9921165432
2.9816952484
-5.5266920335
0.9087472607
1.1494818152
1.6163094888
1.2982793335
0.0067345059
-0.0010185191
0.0033535682
1.5125600063
5.3696875082
-2.1026209405
-1.0641304056
0.5961843243
-0.5664415841
0.2150824141
-0.3582743931
-0.0224776167
0.0171811390
-0.0020300701
-2.6180021514
-10.0063701774
-2.4390789820
4.6330174957
1.2211685578
-3.9523390923
0.4786075415
4.5123337496
0.0078665449
-0.0028330675
-0.0169675250
2.3835408400
4.0864681468
6.4030732750
-1.2775307795
-0.9508502104
1.6735226181
1.8806669738
-4.1733415081
-0.0062766404
-0.0005970176
0.0032600636
-3.0209936464
-10.8431693918
-3.3555514051
5.2984480772
1.2588882515
-2.2048342591
-1.0147814781
2.2355478470
0.0168015317
0.0025624838
-0.0107989978
4.2663051325
6.5165938438
0.6129360224
-5.9609331985
1.2417183635
0.3817721291
-3.7017525782
-3.0133106509
-0.0029597130
-0.0009773781
0.0140184701
-8.9942152001
-8.1433910533
-0.4373227901
2.8196012954
1.5646167627
2.1185258678
0.0434594997
1.2696174805
0.0157411218
-0.0061224777
-0.0013214687
1.4786965651
7.6427894874
0.8708396741
-6.4490640489
1.5560244983
-2.4526494049
3.6812717717
-0.4259236645
0.0035972000
-0.0017508166
0.0157757078
0.7911839424
3.5188265217
-1.8893662958
1.4976860871
0.5428828455
-5.4464701950
-1.2064977273
-2.4348702231
-0.0098767623
-0.0011364655
-0.0027887343
7.7400433073
-9.8657752325
-1.3042822732
-6.9218626503
-6.6751230097
1.3361776241
-0.3206430453
3.2917025215
0.0224007743
0.0055811535
0.0103165114
11.6495994991
3.0117621560
5.3362921705
7.0612036835
-5.6269752431
-0.7236458751
-8.9984470505
2.7775709334
-0.0178312747
0.0211418861
-0.0103953878
2.3507483226
-6.0784572217
-2.9316185774
-7.5524359267
-6.7890428557
-2.5638122101
0.3040555105
0.6026709147
0.0070932205
0.0189017991
0.0127621270
-8.3360777732
0.6394953450
-1.8398797858
-4.4103289448
-1.6900680562
-2.0507554956
5.0577129146
1.2658795803
0.0004259182
-0.0070303611
0.0151528167
7.4094121047
-3.0742322056
-5.9133715048
-6.2593598251
-8.8603458981
1.7122500205
-3.2033446759
1.1781336022
0.0078971289
0.0162443557
0.0031179051
-7.2356321754
-11.5547417854
-2.5876305229
3.3531156671
6.9890911889
5.0509210358
4.1716686874
4.9591207743
0.0096697517
-0.0021427069
-0.0082420524
-4.5538121928
-1.1866324076
9.5451506762
-4.3057743657
11.7385549878
-7.3884976263
-2.3556485215
-2.0501735122
0.0113545311
-0.0026563202
-0.0062180232
14.8883822331
-3.9704056627
-4.0442427734
-5.7135311704
-8.2041531667
1.9408367782
-3.3478259702
-0.3764365934
-0.0084266460
0.0127854382
0.0151900764
-1.9905394011
1.9118591182
3.4146891575
1.9653340009
4.0564827729
8.2734190898
-2.7810846511
-2.1601785255
-0.0084123229
-0.0008677183
-0.0071655544
-4.4705256748
7.6786996610
4.8030466802
-7.9505075609
2.5960850546
-12.0117050273
0.3617574918
-3.1832843598
0.0000349501
-0.0036652966
0.0081247973
9.3939847251
-11.8610157687
-0.3135776719
-7.3357887411
-6.2435323180
8.7280141599
-3.1829246201
2.5886237403
-0.0011956792
0.0051939099
-0.0047122673
-4.1180933428
-8.6280341998
4.5022620164
3.4960053345
3.7367352579
-0.7804339520
3.7532922598
-8.1238266482
-0.0037787727
-0.0003373374
-0.0003551415
0.4741557851
12.5834206283
-4.1016847468
-2.1085533480
2.2004714883
-1.3242408099
-1.0329337182
3.8817064247
0.0048923097
0.0048616219
0.0054598372
11.3607235383
5.8794999088
14.6445496301
3.7377604767
0.0252636637
-0.0015795428
0.0186657948
-2.2925436614
2.3331721144
-3.5895516956
-4.5269209419
-3.8977710567
0.8958846109
-6.3886074682
-1.4773607393
-0.0097596170
0.0017171605
0.0194306868
-5.9017140165
8.3812158761
2.9109239817
6.5635564866
-1.1440252959
-3.5236896781
-0.2603272654
0.4196834189
-0.0051398461
0.0001389143
0.0007670100
8.3713781441
14.1579314233
-5.0938932446
3.1346384636
8.4543685470
-7.6848216354
-0.4435135824
-2.5530983175
0.0123011853
0.0114046907
0.0020905729
-1.1188042047
-1.2897107427
3.4223085198
0.0379457795
3.3417925983
1.6890417360
1.4562053260
-1.8168603332
0.0088712007
-0.0095750317
-0.0036505884
-3.3517934725
-5.3476758923
-0.7406036412
1.4333524800
4.4009640673
-15.3142143363
4.7952528150
0.0496551107
-0.0050074753
-0.0105867196
-0.0130992889
-4.7060075740
-12.6460868342
3.0476687665
-0.8784293445
13.3839935173
-1.2766461561
-1.6394570478
1.3520337307
-0.0030104400
-0.0083405005
-0.0012923840
7.8166797764
-6.8647064528
-3.2694912218
-0.0061141299
4.0305463146
-3.6007319892
0.8783214820
-6.4206367004
0.0099766751
0.0073506812
-0.0051919898
6.8126501306
-5.1956177282
-1.4211289632
1.4380064374
6.9530920918
-7.0481168067
4.6185942403
-1.8734472741
-0.0051105480
0.0125099324
-0.0005386638
7.6994523319
9.7509978716
-3.8745216706
-0.7825868608
6.4173775020
5.9382161234
1.4625154484
2.3839322271
0.0010245810
0.0006706689
0.0048337258
15.0522256323
0.3788206618
-0.3162224915
-4.0484683300
3.4777166755
3.1398329180
5.4054999298
-2.0602365260
0.0144475732
0.0034358684
-0.0002897568
-7.6964485897
7.7631731658
-7.6382552697
2.8654901271
5.5001482684
-13.6919752483
-2.1299516245
1.7765577886
-0.0201036034
0.0087943280
-0.0105715358
-4.8709044711
-7.3574576371
3.3226754250
5.1182798782
-4.0332868673
0.3566510179
0.4423432772
2.4895514203
-0.0032856789
-0.0056345209
-0.0007224601
5.9458022668
2.7370215117
-0.0467142061
-5.9679348099
7.3333377164
1.9390321306
-3.4314310916
-3.0230078186
0.0017671543
0.0130665086
0.0166348922
-7.8070349094
-1.0774756587
1.0225366166
-2.2478770986
2.6539398598
-3.3573549267
-1.1812925155
-5.0614252265
-0.0012690945
0.0020485464
0.0064845877
5.0594364972
3.4201077981
-6.8067153396
0.9841815029
2.3627337803
-1.5398709071
-0.2480906988
-2.5033727387
-0.0098892481
0.0016375255
0.0088451365
-4.3261899242
9.4355728531
4.1556893153
-3.4572189541
5.8171661280
-1.2918181591
2.0741225799
1.2898312547
-0.0192400190
-0.0160823132
0.0038489435
-2.9525617892
-7.8475153365
4.3935348870
2.0931444757
-1.4268181571
-0.9179481470
0.8431412271
-0.6542603021
0.0048231094
0.0069952385
-0.0084125358
0.6717055284
-1.5320790184
-2.3755598045
1.0229196776
1.5235862824
-3.7622382053
-4.7592052200
1.1689379501
0.0025625467
0.0037342825
-0.0058731526
-1.5247796964
1.2559508910
1.0943517282
0.6773164134
-5.4919132302
-1.0111925255
-0.9157949112
-2.0211376043
0.0097539692
-0.0009848534
-0.0027704675
4.5358431734
-5.4707236073
1.3052262815
2.3336718047
-2.0300265525
1.9046519664
1.6142205148
1.8541156585
0.0131531983
-0.0025051260
-0.0107227290
-11.3973441923
-0.4602183394
-1.0310308829
-4.4302540885
2.6802948397
-2.9945621825
-1.6165920039
1.5873376928
-0.0027016168
-0.0144826123
0.0070798292
3.3699491640
2.2455963829
3.2827579164
1.6280788247
-0.0942762724
4.1988359626
-2.2260731633
-1.1635882645
-0.0015731488
-0.0060381084
0.0015056971
-7.2605033816
0.6538358251
0.5245685840
0.9106562150
1.4956518634
-5.7193416956
3.2714735812
1.7858216335
0.0075915530
-0.0029318602
-0.0024141628
5.2837598138
6.3264097069
6.9696189763
-4.4235541139
0.0913746758
-1.2222458904
-0.5677422964
0.7826842935
-0.0125289988
-0.0018143146
0.0056099472
3.6647407753
-5.3396371325
-2.3669621583
6.7214292378
-8.4596382758
-1.2921176058
-1.3022624909
0.8003477499
-0.0003685229
0.0227242833
-0.0128802555
-2.3264347448
-1.2272854576
-1.8423300033
2.8932807241
3.2132116645
-3.1067438180
2.5202478516
-3.2392071902
0.0144381024
-0.0035515773
-0.0061200781
5.3094103533
4.3752151552
0.8379357744
-4.9509505124
1.3490095753
-3.1051801373
0.7920746072
-0.6068224304
-0.0121888282
0.0052461234
0.0044502216
-5.5746656657
-1.3889919273
4.0678626957
0.6718766002
4.2955993987
3.1717200393
5.3420785550
-0.3635881704
0.0038338934
-0.0114651265
-0.0048632505
2.6045351720
7.1460513070
-3.8058201963
1.3979772597
4.4726458073
-2.8813396053
-1.9351016730
-2.9764286820
-0.0129567396
-0.0118312863
0.0078779894
3.5138350513
-3.1546300743
8.5345927964
4.7661209046
-3.5256228499
-2.0918868634
0.2483062636
4.7483414753
0.0049038683
0.0079473374
-0.0152951621
7.3365001974
1.5153353596
3.7068515675
-4.6102151215
-3.1225498769
-6.2049337562
-0.8891806895
-6.0829409535
-0.0116914779
0.0089233517
0.0054875984
11.8631572947
4.8089553065
1.6678851609
-9.0234848860
-12.8660638060
-6.8842127596
-6.5910731234
-0.8705587972
-0.0021970999
0.0163617855
0.0061372743
-1.2381978517
-11.1193378431
-5.4609184162
5.0464790688
-6.0836749797
12.6538688463
-3.3376299854
7.4024677005
0.0126433509
0.0061272556
-0.0053247858
-11.1743448997
8.6580495063
5.8917163705
6.7788146108
8.5673358436
0.1320453181
-0.8625481804
-4.1124857562
-0.0004064271
-0.0012092362
0.0047753894
3.9811050885
-3.4868618186
-3.5928566455
-4.3573008851
-0.8017349169
-5.1198982875
0.2679387063
7.5026067180
0.0054374518
0.0023998549
0.0039453138
8.6565109870
5.5615939826
-1.6195555369
4.1686482180
6.1711157787
11.0809650315
8.0346101301
-3.8747084497
-0.0106918997
-0.0062473261
0.0039833090
9.2898154918
6.8963995593
-1.9772097227
-0.5095755642
6.4092466628
-6.6016558279
3.8197215974
-4.1503697266
-0.0023177820
-0.0095375090
0.0083095274
19.0122743674
-1.6127394086
-0.0819567874
-0.8126778447
-0.9952788919
0.7599385400
-2.5405116272
8.3211628113
-0.0078732258
0.0077439227
0.0007103107
-3.5630180663
-8.8079563281
8.9511282607
-7.6708679753
-12.1005417695
-9.0480765195
-7.8185955298
-9.3252186214
-0.0062142277
0.0145500304
0.0025460355
36.0480439922
-12.9686048255
6.8443506681
-19.7092806366
0.0059690786
-0.0007129923
0.0165481363
-9.4361927951
9.8623810756
-6.2151283025
5.1032829286
1.4908564034
1.9106647250
-2.9243691681
0.1262893456
-0.0217936385
0.0011491067
0.0127123082
-14.1642078205
-6.2901739336
1.6928979574
-5.4388788900
-11.5289845018
9.9300101400
1.6404251695
2.6936208003
-0.0043290056
-0.0070946988
0.0007384841
-19.8771718127
5.1365649308
3.5293776867
-3.2982498505
7.9390485424
12.0211718210
2.5532299376
12.6217094146
-0.0090521366
-0.0008339723
-0.0009797474
-7.9907581743
-8.4255003700
-9.1361582133
5.8013019144
1.4440194318
-3.4798060802
2.2989229190
-8.1462436810
0.0094086673
-0.0076508696
-0.0106907585
-9.9611237907
12.5802424501
-4.1712958290
2.7584328803
-1.5236545447
8.4534895424
-6.7141710890
1.1528077846
-0.0115200214
-0.0129602012
0.0163249314
-0.8230313839
8.8099199977
6.8403237342
-8.4052990884
-2.9050433120
-4.6910917115
2.7859652238
-2.9303232666
0.0069819706
-0.0222122208
0.0198390972
-3.5454421184
6.0315409451
2.8916018438
2.7176293684
1.6748481263
-0.7784841725
-0.3951103289
1.0256520577
-0.0129938675
0.0030530639
0.0024402157
-6.4023518836
6.1821411079
-4.2823651227
0.6581502812
-4.0640985449
3.3514041142
-4.4764685656
-0.6586999912
-0.0056317644
-0.0015113993
-0.0020864170
-0.4944835529
-5.8011798263
-5.8446520519
2.5841450341
-2.0215353123
-10.9715363769
-2.1175520478
0.1453795039
-0.0052786461
-0.0107348922
-0.0177670950
0.8045704571
-2.4512254237
1.0205624653
6.0302812781
-12.3723752279
-5.3465014564
-2.6545477488
3.0541921923
-0.0012637783
-0.0008370609
-0.0184938144
2.7119283468
-3.9888448234
8.5693050558
2.3251014427
-5.9557949279
-0.0227593317
2.6825758428
-1.5253966401
0.0012884541
-0.0028856919
-0.0050453969
1.8627994810
-7.0980146501
-1.5087840998
-4.0249063281
1.9357718182
-4.2668886241
-3.6842101955
-1.9670653014
0.0249856432
0.0007130593
0.0001926219
4.8732905404
5.4021702838
-3.2992442182
-4.1501115826
4.5106967237
2.1103177449
4.4933870699
-1.6529998976
-0.0082724349
-0.0011780984
0.0134621086
-1.8387913581
5.3557196100
8.0101071174
-6.6681210924
-8.4753363602
-0.2248128314
1.5809345265
0.2759406938
0.0003710189
-0.0006419485
0.0191532260
-2.2205308099
2.0218103696
1.4854439625
-2.6573929918
0.4562317881
-3.3512327049
-3.7983241663
-2.5646881945
0.0061465064
0.0038962492
0.0132193336
-1.5547972349
6.6390261094
3.8858145937
-2.1180355593
2.3204301473
3.5251377691
1.3047141087
3.1049060307
-0.0056134563
-0.0150446695
0.0032226812
-1.3936619954
-7.1906479370
-1.6222717945
-0.1174472670
-1.5052844311
1.0696120617
0.8113835060
-4.1215945518
0.0146002795
0.0005181385
-0.0040261203
9.9835086774
0.1927339341
0.2009965448
-1.3016627548
-2.3408181786
-2.4279012958
0.3331682499
1.8770158530
0.0022721879
0.0050296535
-0.0023057417
-0.6512173480
0.8303014829
1.0668472551
2.9003550574
0.7662342676
-1.3435537523
-0.5391020416
5.2284876187
-0.0125563673
0.0111006382
-0.0129804292
9.9218331840
-5.1970964717
-0.6236098487
1.6680966917
-1.9486030148
-1.2647932957
2.8153726678
-2.8235982769
-0.0003102177
0.0249405353
-0.0086722161
0.2707646753
-5.2702697289
-1.0164225636
3.3031201066
0.6338612021
0.6424186860
2.3243116240
-1.3308766014
0.0032083658
-0.0041058588
-0.0116639807
-0.2499570588
-4.2833801820
2.9701656224
-0.8979589024
1.3697539222
0.1953873989
-2.6533605199
-1.3860193074
-0.0121237191
0.0029920438
-0.0022925446
2.6712728324
-3.1020640724
1.7600894484
3.6513116099
-3.4872755662
1.5707840057
0.7678963680
-3.7311748874
0.0046184655
0.0124489107
-0.0039944253
5.9967664557
2.0621274390
1.0646272248
-3.0456119751
-0.9134331713
-0.8536466005
0.4385908309
1.3789881633
-0.0071351505
0.0096716680
0.0017506631
-0.7065864252
-1.6234521611
1.4628146852
-3.0158428900
1.0087706544
-4.1988702725
-2.8751438342
1.4647002580
-0.0067041683
0.0019799536
0.0015431640
4.2203754560
-1.1341949793
-1.6642510348
0.3877675306
1.2633103230
5.4585634312
-0.7554380007
1.9021703285
-0.0019015425
-0.0008886665
0.0058522917
3.8508683825
6.2719635185
2.0613071938
-0.5995047441
-2.4614107624
0.0508950427
-1.4607744280
-3.1797355013
-0.0017314341
0.0132932072
0.0035745997
0.0187418283
-3.6344332007
5.1731305984
3.0720387264
-2.1953002968
2.2540571061
1.3552870282
-1.0517640042
-0.0044420690
0.0046020632
-0.0049728731
1.1160918959
-3.9131686592
-8.1357585700
-1.2974047569
-4.5067458452
0.5224723087
3.1004629367
-1.7745856538
0.0023047163
0.0041143643
-0.0009457688
6.6640675687
12.1689996259
4.6206690227
2.0749812932
7.0181561679
-4.7508343107
-3.7857973908
-4.5174586208
-0.0153005942
-0.0078109460
0.0025463511
-8.0366892352
-3.7566689126
-0.8576595225
-1.6634930536
1.2517060561
-5.1283016430
2.2425549026
2.9183655912
0.0198592499
-0.0111346400
0.0017397168
1.8892373738
-0.6430522376
6.7250266595
9.9495723457
11.1990649504
-0.3152788326
2.1488088687
-3.6793713890
-0.0174595401
-0.0083898939
-0.0111186763
0.7002501038
6.9535436777
-2.5384474213
-9.4177848012
-7.3326257857
-6.0487257568
0.6756351565
0.3533532909
0.0073417365
0.0091832642
0.0106717533
8.3734868541
-2.9336720585
-1.8104583294
-2.7126072444
-10.5940793080
3.8875037009
-1.4181365556
2.7905348933
-0.0026408135
0.0128430323
0.0008372410
-3.2206789766
-2.3254992831
2.1661295805
3.5158069720
2.4783345703
0.1810763364
1.7327375386
1.0907961183
0.0005622095
-0.0088734159
-0.0075095380
10.1596481672
-4.8775283184
2.1175486140
-10.5483839378
1.6150729585
-0.2306706478
-1.3255573877
-1.6536294228
0.0029954606
-0.0007953930
0.0127103681
-4.1251839988
-13.8807150775
3.5793831953
3.3559158447
-2.4957208233
9.9652336508
0.9127080859
-2.9981141971
-0.0041357920
-0.0065257842
-0.0035053301
-10.8720810129
-5.1670531869
-5.1132425401
-5.7576618773
-4.9653065269
-2.0386330556
2.0981138992
2.8370576945
0.0069595786
0.0117487478
-0.0060450850
9.9499233048
-7.6023083998
-0.2532767044
8.0773806265
3.8098086896
6.1939926630
1.5521941265
1.5575055692
-0.0012085445
-0.0091359421
-0.0138772657
1.9763070148
14.5420057274
-4.6189901923
-0.2125224666
0.0132987233
-0.0026365172
0.0032637209
-3.9985849637
-5.6486420191
-3.2920174867
-1.3181060556
-4.2535220599
-0.5701370452
-1.2928242686
5.0387738730
-0.0168492710
-0.0078804254
-0.0080194811
-4.1587279593
-1.4009934136
-10.3597874977
6.7349136801
2.1929415763
-6.4829149328
0.4498022592
-1.6048832076
-0.0060251650
0.0113234064
-0.0114275610
-8.3917796997
-4.7067978867
0.2234971297
0.0080464458
-13.0850137092
-9.1419883672
-5.3194217056
-7.5162506568
0.0090238070
-0.0166263547
-0.0113610816
12.6535921460
1.3904597553
6.9607300406
0.2880447182
-7.7399268399
-8.8687205841
2.1725453870
7.0637032702
0.0047410373
-0.0076803220
-0.0005561183
18.8128364476
-12.8384270692
7.3876517234
-2.4724068319
4.8444562595
3.1933651491
9.3679735857
1.1437060098
0.0269580804
-0.0037314850
-0.0043084838
8.6385792355
11.2923595467
1.3809506702
-7.4931141034
-3.1032462993
9.1944824335
-3.0280825022
1.3698780180
0.0072730441
-0.0060180852
0.0136048065
3.3003554228
-1.6447513637
-3.3294279150
0.5086278453
-5.3171393269
-5.4688576072
-0.2037533124
1.8284495090
-0.0051470413
0.0011691908
-0.0006474037
-0.8859478867
-2.2088575028
-0.3220494710
0.4767777108
4.1482118113
-8.8518109512
2.6061968005
-0.1501413447
-0.0040394658
0.0023398955
-0.0062837871
-1.3652648862
2.9415695361
6.1099171064
-1.5510517299
-2.7068261954
11.1053178741
-2.8711575720
0.4987084862
0.0022817084
0.0010437827
0.0104734822
8.7134083942
-5.2835621192
5.6873971106
1.2411083188
4.5467699380
-3.3716203763
6.3704364550
-4.3874204004
0.0088128883
0.0184596168
-0.0057943828
4.1988396391
-2.4410792051
-4.6286551708
2.8914814034
3.7101630717
4.1736410184
-2.8860476483
0.2503960815
-0.0065466723
0.0080460717
0.0020077652
3.6775229202
-0.9040468335
2.5270838844
-1.0570863395
-8.4727017818
6.7338499751
1.5870531069
1.9369451360
0.0035587245
-0.0003691554
0.0006872983
-4.4241509397
2.5095089424
-1.8563812265
5.6103010812
4.1091898990
1.8105280452
2.0182369205
2.6114921444
-0.0044765260
-0.0061930898
-0.0072555560
2.7469182987
2.6752611506
-3.9881858852
2.7276365636
4.1939946055
5.9880761654
-0.1611209122
3.8019672232
-0.0142819438
0.0063038594
-0.0086438638
2.4900765971
-2.0356013494
-2.1279917334
0.7799346596
-0.9063962511
-0.8323393728
-4.3547540968
0.1299526373
0.0094040812
0.0006032882
-0.0038739663
1.7437791035
-1.9872915520
3.3879795484
-0.9252935333
-3.8370812346
2.2887574982
0.8996182277
2.6052452814
0.0036835328
-0.0022975976
-0.0020849684
-0.7839109951
-4.8624730081
0.0022805129
3.4596288509
6.3920671801
-0.7660684874
-1.4928380430
-0.4173571957
-0.0043023491
-0.0026041648
-0.0102944689
4.1540532540
-3.4842299953
-7.2048070495
-1.8970562162
2.0392477590
-1.5917088444
-2.9528334367
-0.1248116253
0.0056126388
0.0095759214
-0.0037720668
0.9791991874
-2.5186041482
4.4784006571
2.2448437488
2.6047736930
3.3646652787
3.7932175307
-1.3810777995
-0.0128278440
-0.0046574158
-0.0080798070
-3.5703451902
-0.4579258634
0.0703200334
0.3238628480
1.8383090567
-2.7368126012
1.0601682598
2.2688612659
-0.0057256430
-0.0035018857
0.0008580657
-1.2736790411
4.5723003759
1.0154222408
-2.0469718551
-1.6116840545
-1.7983905546
1.5100861335
-2.3044167833
0.0068680590
-0.0040603017
0.0127637277
5.2797970377
3.3946234958
-4.4193470510
-2.7344726608
1.1143643327
-1.4610568198
-2.5976400690
0.3770452813
-0.0020005703
-0.0019789257
0.0070418395
-0.3832373775
-7.4749714389
3.8405704992
2.7071526173
4.0368997822
-0.1291280431
0.2774416066
2.3390296307
-0.0017360995
-0.0039452244
-0.0096692363
4.3868927984
2.8572822116
0.7752742992
-4.7148820884
0.2131237496
1.4569024472
-3.6042770323
-2.0524691539
-0.0068133120
0.0117780138
0.0084943120
-5.4432175837
-0.8506172575
-2.7528996848
6.6795754276
-1.4370288453
5.4325352902
3.3190033208
-0.1319965724
0.0011767031
-0.0042650031
-0.0120824026
3.4152966600
1.3000552101
4.4459473931
-4.1007342674
0.1447511431
-5.9095300524
-0.8110180755
-0.8775074464
0.0026533003
0.0003020997
0.0062907623
6.6671567108
-3.2938887627
0.7155020552
-1.6667824716
1.6723789188
4.1315087983
-1.3233605063
-3.6951874950
-0.0076270239
0.0094640398
0.0023504887
-1.1613738900
-6.0845079430
-0.4388224653
4.4378405831
0.1517297017
3.7422806576
3.1772401832
-3.6342826344
-0.0112308305
-0.0076182832
-0.0072294046
-0.1138059447
-6.3285925334
5.7637437952
0.1322694780
4.7777903056
-6.9867280327
-1.4155362746
-1.8087838079
0.0027432343
-0.0106056432
-0.0071007718
4.5088373470
-9.7890933324
1.3546760396
0.5965680903
-1.1247658600
-0.0584403075
0.7812320380
0.2676112288
-0.0121643759
0.0059175902
-0.0117865350
-0.0925459709
-4.9600645992
-0.8107080958
2.9164030847
4.1205439312
-2.5909823257
1.7700145673
-1.2281204933
-0.0076969146
-0.0148762682
-0.0064575126
-1.4777126448
-3.1443245509
-8.6992288690
-0.6265941854
-2.5396425619
-3.6083974994
-0.3743092598
3.8036553512
0.0225998726
0.0074149878
-0.0030817510
9.0645493422
7.1317787132
7.0730277612
-1.1330650540
1.9672001745
1.2704943969
-1.6099210449
-4.9358268560
-0.0150826403
-0.0041791269
0.0087016548
6.8648257764
-6.3214801021
0.1412908419
-1.3445797711
10.0742827908
0.8585143570
7.6294268998
-2.3220603785
-0.0127554291
0.0024345760
-0.0035438869
-6.6575272704
-0.0657971621
-1.3001691163
-3.3594952394
1.9892088858
-10.6060402928
2.8337094171
-7.3810430637
0.0112253764
-0.0043692277
-0.0017266944
-10.7966232729
1.9983006387
-3.1303487737
4.8851392485
-5.4866322285
-7.4961471370
3.3873796059
3.5670649697
0.0162214175
-0.0092134011
0.0137483431
-8.9866920083
10.1811366069
-3.1026988992
-9.2380918622
5.5540862577
-7.6680841822
-5.2062484146
-3.2296605737
0.0133939777
-0.0009213010
0.0135200451
20.1175847716
-4.7397755919
10.4280247216
9.3873363716
-9.0068384473
-5.2037136234
-10.1900458435
-3.6397862635
-0.0287566317
0.0051666634
-0.0144022503
-1.1145280804
-4.9007458892
-4.5132453230
0.1013545826
-4.3358808461
2.2063616315
9.3134915154
7.4845972263
0.0042301486
-0.0034465150
-0.0092986323
10.2756599275
-7.9328897116
26.3433683071
3.9326297100
0.0103620982
-0.0174035528
0.0008106938
-8.6825888969
6.5651381458
-5.0791851387
-2.5257330556
-1.7355336978
0.7477581704
-3.1075008861
-3.6291065744
-0.0089062017
0.0014516506
0.0191240668
-14.2849423953
13.3459742369
-2.3395460810
-1.8148406914
-11.2184480621
-1.8766460965
-5.1630923256
3.7413580343
-0.0179990558
-0.0090899820
0.0025387212
2.9763391151
-18.1794113801
-1.0899894419
0.3329109333
-0.7163350457
-1.7951670684
-0.8336146720
-1.2421639515
0.0060634560
0.0022470472
-0.0028787053
-9.4987778873
-8.7200025122
-1.5027269367
-10.2407791561
13.6108262084
12.4842056381
-2.7265496595
-0.2671025349
0.0030763952
-0.0011888537
0.0110892466
-0.5237853027
-6.7996012108
-3.1334457449
-3.6371872503
1.4939756874
-7.9162946112
-1.8072635463
-8.7334166429
0.0011312278
-0.0050246742
0.0091218500
-0.7613336771
2.4023928605
5.9172017558
5.7188105559
-11.4087952883
-5.5116144998
-3.5504413137
-1.9833886427
-0.0036242991
0.0015801248
0.0005275885
1.6614436825
6.5767914762
1.7687431185
-9.1282071084
-4.3175568766
0.8417530756
7.4985344770
0.9803052504
-0.0019294428
0.0033166707
0.0110830706
4.3868658789
-5.3402924625
-1.1823970102
2.2039761100
2.5824445596
9.2208969607
-4.7847333261
0.2923759872
0.0006221992
0.0011115013
0.0090934532
5.9064751713
-7.6764804402
3.3174542339
-4.3459170866
4.3794096678
-6.9480717372
1.2771592443
-0.5457650624
0.0025696907
-0.0005423546
-0.0096556270
-4.7205369540
-7.5514970878
-2.8975391557
0.0169926850
-5.2523189185
-3.7812364259
-5.2591737185
-1.7469920563
-0.0049552855
0.0046156980
0.0008588682
4.7398544865
1.1705607758
6.1017537670
-4.0718868811
-2.2852374943
3.4542561781
2.1437346618
-2.0316066881
0.0112062275
0.0022035962
0.0154939032
-1.8849495448
1.1935503892
-4.2377309805
-1.9663459252
8.3454300418
-0.2685603104
4.5147299912
1.6429235590
-0.0134930548
0.0106838866
-0.0016917449
-0.2350730124
-5.9780166850
0.8866472327
-3.1658324869
1.6235865110
-4.9943790575
-2.3964212278
-0.5006632526
0.0103305298
-0.0107653512
-0.0017339146
4.7424790641
-7.5986207331
3.0462020829
2.2972488523
-4.0382401515
0.0441489124
-0.2769591771
-4.0246059152
0.0055289911
0.0030244495
-0.0021009792
5.0575650265
-4.9317399054
0.0898015248
-4.9827365725
-1.6637295123
1.6821848319
3.5297362245
-1.6591218586
0.0044171139
0.0003531904
0.0016143256
-3.1968726214
0.9362808905
-3.5103586208
0.4667999495
2.6887541023
-8.4312497333
0.2119812123
-0.6440473993
-0.0096359956
0.0109813347
-0.0010025130
-4.3730587278
5.9151862235
4.4828800813
2.2208437099
2.2371102997
-5.1279931108
-2.2101223950
2.2984192513
-0.0185041578
-0.0154756711
-0.0033625077
2.5794018186
-7.1954901829
1.9862262396
-0.6641731736
-5.4280877239
-0.1366946695
2.0070664650
-2.0383385412
0.0259263734
0.0076081067
-0.0068245747
-3.3835541614
1.0977467654
0.5468754084
-2.5712896683
-3.0475241686
0.1772246326
-0.5392311833
-1.3453399740
0.0056679327
-0.0039301396
0.0130848213
-0.9665384495
0.8907916897
0.7294137767
-0.7653959238
0.0897552756
1.3894141392
0.5938055290
0.1622450505
-0.0039374965
-0.0135488036
-0.0012011939
1.7902061080
0.0229185122
0.1966881670
-0.9777413581
-2.6188131900
-2.1539041494
-0.1956761285
0.4980213384
0.0057258622
0.0043399990
0.0024536623
3.7200563084
-1.3988554530
-4.4156468194
2.7210895849
0.4321514911
-1.2410919433
-2.2073429047
-0.6910893348
-0.0000014602
0.0049944832
-0.0079367213
0.1205371783
0.5683170795
-1.4571365091
0.6614475346
2.9877411112
-2.3005815165
1.6432089278
1.4312690084
0.0015453449
-0.0107766157
-0.0042838068
-3.2414446221
-3.0450398347
-0.1477764370
-0.1985325209
2.9563753663
-4.6320622670
0.6171567760
1.7871726648
0.0088122965
-0.0140677244
-0.0002782999
0.7899769386
0.3884368478
2.3148135598
-5.4166325600
4.4769764596
-6.4721319912
-0.8567912380
-0.7049561062
-0.0059146551
-0.0022401577
0.0080684644
-3.6860179154
-3.2150809893
3.5698718194
-1.3130458471
3.3186348956
-0.0909862245
-1.7274257584
-0.9524257081
0.0027433885
-0.0111906410
0.0005996078
0.4511060661
-1.2934903721
-7.7039611720
-6.1102760410
-6.6866972460
-3.6333066179
-1.1372732448
0.7166202027
0.0183344035
0.0125929269
0.0215271386
-2.8726903076
-1.1471712024
3.3760581359
-4.6884134241
5.5842576664
0.8046792578
0.6073714240
2.5556902113
-0.0007834240
-0.0138554653
0.0054384184
-10.7594567248
2.0864859448
-2.9393267910
4.0354969822
0.7731708305
3.0740685502
-2.1067287585
-0.5731979123
0.0058065362
-0.0065588885
-0.0013904515
-6.5867521521
-2.8193492437
-2.9657599070
3.2310805255
-2.9393054376
4.0417164837
6.5068533445
0.2540934708
0.0121851843
0.0007053093
-0.0132091169
-2.0124040168
-3.6518189350
2.8138493141
3.0936976721
8.6524241665
8.7673548633
-0.5543493331
-0.0999041733
0.0002349234
-0.0129111002
-0.0112628140
7.5698622065
-0.3578357879
-0.4227516511
-1.1987987120
-0.7558895557
5.3698262001
4.3187364435
-1.3092064439
-0.0016591873
0.0145594657
-0.0055867147
1.8342790425
5.4217475007
2.3908460764
3.1402787405
14.8159228149
0.5298108658
1.7496411532
1.1862819183
-0.0108149493
-0.0174353989
0.0134860230
4.8305404318
-7.8656127562
-3.6429471023
2.1126794607
-3.3778310318
2.1535567746
0.0035745052
0.8991269154
0.0077313715
0.0167788928
-0.0063956043
12.2433966397
-4.6354243900
-1.4851297955
-0.6868478841
2.1213228590
6.9714972881
-3.6294901430
3.0012744110
0.0012564506
0.0057109145
-0.0048934051
2.4200111698
-2.7275789591
5.4843818318
-4.0212571405
14.0109054637
7.1647455927
-3.2075441077
-1.8926096324
-0.0199797202
-0.0042755915
-0.0025838067
-4.8099140684
-16.8206600612
-1.4951344535
0.3892203166
-7.4326411502
10.3984943189
5.6347898134
10.6515916277
0.0215054369
0.0005228102
-0.0061648170
-13.4194297400
6.0754238677
-4.7280594190
-1.4170831979
4.7889401210
11.9273653391
4.3240233441
2.6566404666
-0.0014719281
-0.0078976384
-0.0040285107
-19.0445623258
-1.1208322944
0.2727455163
1.3132337676
8.3522640831
-8.4320714147
2.2286264243
-3.5870347911
0.0033712142
-0.0094219633
-0.0065836327
12.0519903887
0.9241717365
13.8845219400
17.0295335054
0.0193173418
-0.0048528998
-0.0022158207
-9.4756761687
5.2187284258
-2.4369005422
2.8488178673
-2.7826229448
0.8890410421
-1.7322861555
1.4272847421
-0.0162174200
-0.0039969626
0.0076589698
8.1143960662
-10.1643775260
-0.4495506048
3.9800094266
-1.9584058679
14.9054587556
5.1076897203
3.6749034330
0.0118116766
0.0110711513
-0.0032635286
-12.2759752929
15.5651380198
-1.1097405757
4.8929753971
11.0392434313
-1.3553146558
-1.2202000103
-6.6150354174
-0.0069554364
-0.0018127954
0.0101004696
7.8226285936
1.3148075457
0.3774679791
-2.8776187364
-13.1201590374
-7.0596110234
-0.1653021810
2.9343847053
0.0094872129
-0.0097383434
0.0003495372
-9.2200322755
7.6535971821
4.6395852849
-3.1276500147
-8.8735023363
5.5114547870
-4.5675558777
5.2016142854
-0.0122579999
-0.0071867358
0.0102576399
-2.7922156811
-13.1706127878
-3.4770562044
-5.9391562184
0.3435762886
-0.8652668916
0.0533177095
-3.8240595886
0.0036413305
0.0099351118
-0.0066570553
2.4193686284
-4.4556224563
-1.4436022233
-0.3851038314
-4.4228583798
11.3116410674
-4.6138902451
3.2303832171
-0.0064420424
0.0112798468
0.0138813701
1.1673340657
-0.3658985747
4.1434985008
-4.7647364228
6.5018349673
3.0836752873
7.7268229558
-3.3677397317
0.0092017800
-0.0062677136
0.0065813759
-2.7497899471
11.7023556687
-2.6686499185
3.2101308215
1.1806226500
-3.2891589343
6.8033451555
1.0832930245
-0.0147185977
0.0015394622
0.0010526214
0.7344185434
9.3572905901
-1.8206107472
-0.2484287913
10.3928363676
9.5166045539
4.2491083516
2.1995910011
-0.0034589429
0.0079634928
0.0089698634
-8.4195487602
-0.4033004570
-6.5854298999
-1.7017447677
12.8635034653
3.6439565364
-1.2129664109
-2.9740331841
-0.0110759856
0.0002365830
0.0027979360
0.2135923709
-3.3393200071
4.3361006147
-3.2205355646
-8.7063398503
2.9355040504
-3.0400403090
-0.4148294023
0.0005482400
-0.0068874114
0.0110334990
0.2273140632
-2.3533301546
1.8328709878
-2.2513570263
-2.7644994631
-3.4695665643
-2.5181316924
0.1202155741
0.0018059704
-0.0088482857
0.0000763900
3.8717168016
0.1220746273
1.4543823236
-0.4472799460
-0.8355868142
-1.5262483279
-0.6580161070
-1.9587366859
0.0078001513
0.0103413153
0.0048523091
4.3638237672
6.3687696684
-1.8516737715
2.8323214005
4.2287195778
-5.3072220904
0.0372038807
-0.2104324143
-0.0097440743
0.0087052028
-0.0011082797
5.8331582210
-1.1638743886
1.0724436921
-3.6393509649
-4.9712691650
-0.7490228908
-1.6395815973
-3.6533157220
0.0249357377
-0.0015501639
0.0049220892
-2.8522172455
3.0979218656
3.5674464779
3.0202137417
3.1000865063
2.7200909450
3.2333776272
1.0407377104
-0.0134308183
-0.0070977133
-0.0021833955
0.6942757703
-4.7605878528
-3.1751426211
1.7742261912
6.0564795063
3.1034178009
2.7766031630
2.1934964281
-0.0111980808
0.0070145499
-0.0091310625
0.9084077401
-1.6875784294
2.3110686522
-1.2901815124
4.0791284844
-2.6649550528
-2.1782973854
-0.6150517768
0.0008292268
0.0066398794
-0.0010177374
0.3807490895
-2.6964751987
0.1492007857
3.5998711767
1.4419057905
1.9394141472
1.0486107589
-0.4726194425
-0.0151624487
0.0047621682
-0.0072016807
-0.1708149224
-0.8827544690
0.8739838070
-1.0113687775
0.6869221235
-2.4018252491
-1.1215104788
0.9707423948
0.0025794008
0.0009749365
-0.0039141345
4.3948791357
-2.7460641381
-3.6410696384
-1.2988535418
-2.2699346182
-0.6073985779
1.7041419338
0.9005222313
0.0081197620
0.0070376548
-0.0039864137
-0.8848174242
3.5810255721
1.7356534724
1.5340430201
0.5412067612
-2.4397294985
-0.9809276848
-1.8977571145
-0.0107033008
-0.0022748398
0.0024450085
-5.7887295219
-5.8528693413
0.6420199847
0.7955853450
0.8189328961
0.9889530281
1.3071337124
1.4958307336
0.0178603171
-0.0085351882
-0.0167948192
0.8734297957
-0.6742440138
0.4351759711
0.4365438500
3.4603583872
1.7207915533
-1.7054549862
1.5014331473
0.0014575017
-0.0080254796
-0.0025834614
-5.9020115059
2.4905508623
2.6197689941
-1.1899022570
3.7148289989
3.5614700956
2.1604219647
0.1565381721
0.0016636696
-0.0089883108
0.0033615311
5.5485884636
3.0726286480
3.7805588942
2.9589061459
-2.8152700961
0.4249302387
2.5278750798
-3.3128627251
-0.0206266439
0.0073094708
-0.0029054778
-2.4235608575
1.5840067722
-2.0473910963
1.8210648015
6.2104328484
-7.3596500045
-1.6448997373
-0.5328202619
-0.0051852467
-0.0160033835
0.0022648481
2.2710584125
-4.5441537063
1.3311689346
-4.5310047520
-0.9335190237
-2.0795883818
0.1148265684
2.5491894208
0.0105379474
0.0097764685
-0.0045762687
2.0210657484
-1.1780758326
-0.1654935631
5.7480882971
0.3532818968
1.6149446117
-2.9852298171
2.5094421395
-0.0174979595
-0.0078852164
0.0026661817
1.7438265008
2.1453729111
-1.3376711301
-4.7881249163
-0.2719034055
0.2915070242
-2.6374357305
4.2111741734
0.0160188068
0.0070726710
0.0075065250
5.0844890018
6.1480927288
0.1557198924
1.6161425026
-6.7425617287
-1.8581219355
2.1379576838
-0.4547948187
-0.0020349593
0.0143650735
0.0108014031
-5.7905221823
3.4524149674
0.8491755395
-5.7147631772
-5.0609689354
-1.1703494516
-3.2609614282
-9.4408142622
0.0038212333
0.0163386162
0.0093474029
6.5381625857
1.0845651133
6.0338783258
4.5310874638
-6.5954319223
-4.0821909653
-6.2484996874
-5.4158556900
0.0003751297
0.0110370631
-0.0070497915
1.3642651298
7.0919178718
1.3402923335
6.9376225885
-2.4064347101
-20.3045141620
2.5795259140
-2.3684588719
0.0001831415
-0.0007997324
-0.0003900099
-3.7577453439
5.2657257543
3.7537349917
-0.1970084035
-7.3250063720
4.3433382093
-3.0921448898
-6.0411844246
0.0050415388
0.0081156685
0.0057129998
-1.4818756598
16.5872128819
1.6923032686
8.3853182310
10.7205863837
-15.8134355053
-0.6331761558
-7.7295674361
-0.0084033442
-0.0052454468
0.0037081066
-0.5961262872
-4.3360601383
-4.7821110229
2.6380681498
3.4767518273
0.1290307306
5.6932443263
-0.6428337521
0.0065048454
0.0023504245
-0.0078729957
7.2009314604
0.0877851261
0.7513911795
-3.5086495837
-5.3533610395
-8.3407234751
-2.9453327048
-5.1083506432
0.0011757343
0.0069760185
-0.0099573300
-4.0282890597
-10.4869230077
1.1259485090
-6.5939690606
0.0241450073
-0.0004506160
0.0136377032
-5.5191929188
-0.0950682472
-1.0639036744
-5.7268777508
-2.8790183373
-3.1683247043
1.7309971614
-2.5556862963
-0.0096571627
-0.0031760460
0.0095317153
-9.2650226429
-7.4351878573
1.4434714310
-6.2375649148
-4.4074594151
-8.2408244471
-10.0243119091
-0.1940208514
-0.0015171355
0.0055119390
0.0004888943
12.5911704238
10.8944553334
0.2335995000
2.1197756328
-24.7653334972
8.5483421505
-4.1863979631
7.8863166996
0.0066364798
-0.0071256742
0.0075313902
-0.8935425168
6.8584585007
-1.7818164108
-3.7800767065
4.9385267664
7.3539789483
-2.7248784426
-3.6046875646
-0.0013485438
0.0062732857
0.0072003127
9.9033588546
1.9076289660
-1.6077458686
-1.7799999448
-13.5226931358
4.9860982569
-1.8753729641
3.4611786448
-0.0007119513
0.0062548161
0.0016864620
10.9764838830
-2.6058242631
2.9784155638
1.4143927555
-1.7357646234
-1.4679656282
5.0431423033
1.5693220323
0.0012738223
0.0093825768
0.0035603358
8.2751208884
2.6667264368
4.7351522524
-1.0042823990
-8.2160848889
-1.5883253966
-6.4011028742
-3.0711497492
0.0155729852
0.0149365830
-0.0027985471
4.8730011871
-3.0286592068
-4.9076679117
1.2143159124
-13.5618392962
1.6565124040
-4.4353653269
2.4164155267
0.0003235699
-0.0079906351
-0.0005788092
1.4266672387
-5.2751492011
3.8570506278
3.8589122531
-5.2404353480
-3.3723388819
-5.8889683282
-3.7511818175
-0.0022810714
-0.0058573691
-0.0008331450
2.9202499132
-13.4633025554
4.4932041414
2.8375436929
-12.8208415484
-6.6986459315
-2.9691297399
-0.3931299143
0.0130246678
-0.0113381344
-0.0123085998
-3.6727735843
2.5211468955
3.8829873215
3.3591219179
2.2346212181
-3.2043083356
-0.5584494557
3.5077697161
0.0001353138
-0.0195752348
-0.0182920305
3.6638973455
0.3587780467
0.2834732725
2.6577090487
3.0949742230
-3.3394072493
-1.3454204514
-2.0079392547
0.0082455647
0.0152433709
-0.0075524187
6.0567454415
9.8427746989
1.8953623858
0.6597001576
-0.5315721089
4.4243588484
5.2877893563
2.2313555120
0.0041255958
0.0071151334
0.0085521753
-3.5312322541
4.6110557589
-2.3122321998
1.1518047624
9.3578043029
-0.6872661345
1.1732497110
0.6631786949
-0.0103127665
0.0033452390
-0.0044907572
-1.6876447012
-4.1010165994
-4.2997995155
0.6680077292
4.1532906665
1.3542874055
1.9357468780
3.1536229767
-0.0167449264
-0.0073142146
-0.0074095817
3.3485669832
-0.5922795843
2.0016524079
0.8480758817
3.3833125662
1.6892168757
0.5976754559
1.6750755621
-0.0048852517
0.0101110396
-0.0026129793
-2.9884533095
-6.9006170078
-2.0439814336
-1.0233309214
-1.5100796289
-4.9291920846
-1.1486542726
2.0234466042
0.0133575997
-0.0107524183
-0.0133288033
-5.6799009171
-1.9713682563
0.1674540739
3.6513236827
0.2742311091
-3.9187520414
-1.6276179327
-0.0839656863
-0.0097568711
-0.0145560585
-0.0073371039
0.4713344653
-3.8062057337
1.9179428815
1.6462169761
-4.8790545807
0.9815672955
0.0641056171
0.8527133902
0.0157847907
-0.0107236459
-0.0128783858
2.6260609238
-2.8701890649
-2.1613509613
-0.4467724620
-0.1423012104
-4.0234328037
-0.4124318767
1.0133421342
0.0087876074
0.0029055343
-0.0028787954
0.0069539723
2.7451912510
2.5194734041
-0.7658711587
-1.8593982220
-1.4699768345
0.5148846268
0.6193676224
0.0018477536
-0.0015745675
-0.0009634904
5.1828103602
-0.4177723925
0.2790393639
-0.8283193257
-4.8588106134
-1.6656595633
-1.7406489173
1.3206396972
0.0070436353
0.0162855890
0.0026514960
-2.9463626032
-1.1720058199
2.8755226243
0.3073474771
1.4870253707
-1.3019994571
-0.8385245700
1.8282666425
0.0055176327
-0.0051499349
-0.0081706539
4.2715373758
3.1907376176
0.8812324876
1.0671833080
-1.4498107518
-4.4093502499
-1.6927599060
-0.6022291596
-0.0098728824
0.0146720684
0.0023666512
-1.7512027882
-1.9855042382
2.6743538192
0.7154770014
0.8905718405
1.8537472193
-0.4845416328
-1.2422973824
0.0055650261
-0.0006643747
-0.0063221070
-2.9781013460
0.5428811280
-2.1625499750
-0.6003455696
-1.6524407592
-5.3851212915
2.0065142039
-0.8763174385
0.0132850358
0.0009701028
0.0064672385
-2.7981709061
-3.9958305653
0.0516873080
-0.4643246732
0.2622818700
5.9687682398
2.9894410438
-0.6554514078
0.0108289118
-0.0057615243
-0.0031212115
-3.0696146333
2.3457490249
-0.3871888065
0.7471001032
0.7729548474
2.2350356399
-1.0956205131
0.3498306278
-0.0001258922
-0.0068928558
-0.0040206057
7.5945781407
-2.6299658805
-1.5926225649
8.0537620389
-0.0561253292
1.9689447500
1.9849192727
-0.0585635726
-0.0151301234
0.0044759624
-0.0125156321
0.6163779580
0.8181367518
2.2928630703
-2.8770541441
6.3409863444
-9.0783706025
3.1591647948
-2.9043832611
-0.0059170082
-0.0049829016
-0.0119576382
5.3595635463
-12.6632650451
6.0598006828
-6.3204545044
1.9797700585
-8.1849508802
-3.1910369591
1.2200182349
0.0017847275
-0.0005188540
-0.0019572270
12.8770335141
-2.4460889760
2.0865965737
-7.8096416124
-9.3171194432
0.1951894984
-5.5951462909
-0.3677476191
-0.0118513950
0.0041580758
0.0110002648
10.0679965896
-1.4228971445
3.6925625163
-2.2137164027
-11.1181895186
-2.9666725725
3.0266888014
6.0419416889
-0.0038737873
0.0062849099
0.0159246730
-6.4636765223
-6.3007909059
-4.1885707591
6.6897606843
4.1489559363
3.2854836549
-0.8998340130
2.5069062870
-0.0045948124
0.0040873775
-0.0003952423
-0.0381684838
5.0190570298
-3.8981910324
0.2958742216
7.5234767904
6.9103485118
3.6943868876
-0.9558063912
0.0078681895
-0.0015711840
-0.0122338592
10.2192799206
-0.2639791667
-2.8979324404
-7.4229646933
8.8037069608
6.5605458281
1.9154363250
6.1584506353
0.0034094054
-0.0022652470
0.0163644923
4.5549856895
-14.6871210082
6.4426023921
-8.1000519939
-10.0552659556
3.9040464601
4.4896625964
0.5444373112
-0.0042496713
0.0067025979
-0.0013419711
-0.7961772914
14.6991640758
8.8472456910
-0.8695505467
4.8896016618
-6.5754301867
-5.4911918535
6.0091208862
-0.0054597837
0.0037153233
0.0142207592
-5.5334841878
12.9071764098
-0.6263460720
2.5117663037
-1.8459816168
13.9140687527
6.0460415199
1.2440718664
0.0060605527
-0.0008419258
0.0053148679
26.7119471226
13.8070053710
19.5839903549
7.1078901998
-0.0025843518
0.0001289960
0.0128467415
-8.4343016042
4.6227770638
-7.9192738653
4.3994910578
-0.8810948805
3.1894240471
0.1505264966
4.1649399365
-0.0201871214
0.0003616570
0.0116760773
-4.2649506928
12.3564742619
1.5527294904
0.5143484334
8.8649804653
-3.1764836173
9.1214313167
-5.5593216331
0.0090365243
0.0024142739
-0.0026845820
-0.7486875485
-16.7593428742
3.2457299494
-3.6867673166
7.1556482147
7.6310981676
-1.4390986319
1.2090197373
0.0021891927
0.0185965239
0.0070207358
7.4586812681
0.0387563051
8.8586669182
3.8575018567
-3.4534661095
-12.7340040406
-2.5949552564
1.3442804486
-0.0054101218
0.0047801170
-0.0029186206
-2.7640486435
0.4697970238
1.4745360106
1.9350644849
8.0400967498
-7.8956123071
11.8161544721
-1.6093603214
0.0063243835
0.0189855296
-0.0110623650
3.0019659721
11.5348088114
-2.5255921621
-0.4693531873
11.8296378481
0.2316325562
0.8641587589
-0.6146726410
-0.0084977091
0.0063174713
0.0072829865
1.3493094639
-4.7367248167
3.8055483366
2.1711355763
7.4610301827
2.2884985904
1.9607512587
2.6847245769
0.0025054202
0.0203269507
-0.0035043474
5.6639748632
7.5127914227
3.8296986803
-7.4277649310
0.9505375688
0.8577517354
3.4826991760
-2.9652161973
0.0081475882
0.0132702317
0.0070528723
-4.6191189746
7.8814971361
-3.1821368262
-0.2064573769
1.9092708941
1.6702919095
3.5620469866
-0.5341080867
-0.0129495077
0.0055445447
0.0141615198
7.4070190306
4.2319692716
1.7480301403
-1.3951063765
9.0153893677
10.1098062793
1.9493441215
-1.0977437962
-0.0029294631
0.0158705229
0.0179494926
-3.0501222791
-9.0514102110
1.5539651704
3.2383317408
-7.4853981506
-10.5165292764
-0.8369483305
-3.8108515284
0.0022606800
-0.0084094677
-0.0134651505
2.3691292440
-1.7867726117
-2.7642451820
-1.9409786369
-3.6272809516
-2.0909046548
-1.2375414808
3.2471410402
-0.0040771987
0.0004240428
-0.0027605372
-4.3681087313
-5.5365673487
-3.1804187091
-0.5507830084
-5.0021735367
-2.6469323917
-3.1162648345
-0.2747656808
-0.0055096273
0.0012635601
-0.0048801123
-5.3513314688
-8.0643176069
1.2204141530
-1.3371748663
1.2193246813
-5.4784053582
0.1478106932
1.1695542585
-0.0072493514
-0.0205533203
-0.0079138363
2.0689368955
-2.1391343727
1.3078054926
1.5225818651
2.0514386656
1.7051171216
1.1381420184
2.3637140765
0.0048890978
-0.0050700630
-0.0062044112
-5.4926984382
-3.3644599400
4.6226901739
1.1102842417
4.7051031487
-5.3014911834
1.5929115218
-0.3501242724
-0.0025205652
-0.0061903482
-0.0113698819
4.1626301431
0.8705444876
0.7600144895
-2.3020516798
2.9684431639
4.1351731568
1.6255882833
-4.0871929527
0.0222019039
0.0086383743
0.0029938409
4.2912789479
1.4876316997
2.5205649903
-2.9294041061
-4.5780782848
3.6978143293
-1.4916268422
-1.3362104575
0.0134562458
0.0013317781
0.0145761451
3.5514116712
0.7819836384
-0.1390059240
-2.3389637022
-3.2722263652
-4.7066895552
0.1722026020
0.5225393860
-0.0056362323
0.0148160597
0.0018317629
2.0949619231
3.4176613179
-0.5377457054
-1.7726777671
2.7083116912
2.0084675360
-0.6659143339
0.2747688436
-0.0038217126
0.0016432743
0.0101732056
2.9384657192
-2.7138240668
-0.1146171512
0.9971290699
-0.5134515298
1.1207796944
-1.4242473498
-1.2657170742
-0.0040533823
0.0087785176
-0.0026300582
2.7741645441
-2.6578005826
1.8082129484
1.7375455190
0.8625228111
-1.8492593535
0.5379150333
-1.0949631851
-0.0196556856
0.0082530163
-0.0130296305
4.1842476694
1.5693785147
-1.3843873590
-2.2943716067
-3.0829385822
0.9773701783
-0.2765921288
-0.8509418072
0.0138959344
0.0116683712
0.0064067740
-0.4829590889
-1.4559251808
4.5759156101
3.9413576402
2.0149376886
-2.5469048284
-2.3700435728
1.5277209865
-0.0167920062
-0.0052790332
-0.0102533751
-2.3100903255
-2.7282681931
1.5619935071
-2.2504632642
-0.4627532546
-3.0767957624
-0.1666873850
1.9800937719
0.0137434045
0.0027579859
-0.0030317694
6.5183178995
5.0992492796
1.1296314730
-0.0063814035
0.7325459732
1.0123439064
-0.1205305790
-0.8552779469
-0.0124837724
0.0072504646
0.0062004980
1.1539084366
-1.8715782911
0.2061839838
-0.7592012368
3.2125495338
2.6208422408
1.1490883338
-0.5907257741
-0.0031294286
-0.0043517943
0.0050832389
-5.6905593838
0.9636370764
-0.3908700730
1.1644028763
1.4475292251
1.2001313420
2.4982997715
0.4217521017
0.0064605122
-0.0022256265
0.0026990269
3.6649291179
-2.5346991126
3.1809088292
-2.4898399640
2.0108127830
6.7040469012
-3.9872793283
0.6241607086
-0.0018109103
0.0095712535
-0.0040746124
-7.3698888019
1.2418019173
-3.8984666031
5.2768377585
-3.0172896182
7.1480043077
2.6954681112
-2.3564576492
0.0101090559
-0.0026554220
-0.0037701902
-3.2472185705
3.6614883435
-1.3977539935
2.6124718065
-2.0036204536
10.4170643031
5.4900402987
0.4390883235
0.0092046910
0.0053321661
-0.0122199366
-7.6571745604
-9.8048163411
-5.5399091263
3.9612127643
17.0541247615
1.5177620547
6.9618297442
0.2556687246
0.0015417597
-0.0277026741
-0.0071180148
-3.1995863959
-12.2373705044
1.2460707273
-4.1698753120
7.1767168303
4.8908211555
-4.7571914631
0.4125892170
0.0027699462
-0.0041488016
-0.0137115662
5.5897329309
-9.3516780857
4.9925006153
4.0149727655
-5.4914583249
12.1142362569
3.8818015948
-1.8461168068
-0.0072923560
0.0146751534
-0.0220665885
6.8780242397
-2.7619028325
9.0508404458
-9.8854705982
-8.5815484899
4.1918706230
-10.5643394450
0.2047460160
0.0096109551
0.0039728688
0.0033448949
-3.6826062276
-12.2376455081
-7.4905880259
2.3744577377
-9.8567060329
-3.1284978145
6.7739389703
-2.0299583695
-0.0065064625
0.0039146157
0.0133250670
12.8526131769
4.2941915568
3.8935096476
13.5075251047
12.1777458801
11.2304695183
-10.1434274289
3.9954472447
-0.0085477669
-0.0091173706
-0.0161699267
12.5055246213
0.2419820813
-5.6417931260
-6.8126630620
-13.4544956373
-10.2306264850
8.3433724707
-3.4022128688
-0.0034419009
0.0173211566
-0.0010092775
-1.6574933947
-8.2245551820
0.2204515473
-6.4961561239
9.5384192494
-7.3981824200
-3.3792497934
-3.4209192807
0.0106244980
-0.0011941390
0.0074979316
1.3035304380
-10.3195375090
10.7111340595
-2.5314875879
0.0163464255
0.0061449622
0.0136693041
-1.0008486740
0.1871040035
-1.1371813918
-6.2704658616
-3.3216773368
7.0115226552
-2.4473215755
1.1522354053
0.0056673437
-0.0003065429
0.0201628135
-7.0976053352
-5.4032823122
-7.4728279335
3.2614271303
-2.4142260311
9.2645895524
-4.0972654896
4.3056873305
-0.0053437796
-0.0106008517
-0.0010463549
-11.0799181163
6.8567257882
6.3069831395
-14.4690666243
6.4627038681
2.2693666098
6.2390721868
-3.3123477533
-0.0019585378
-0.0017908214
0.0093149400
-9.3183373065
-2.6352120705
-3.5170590251
-0.3359536956
2.0482581484
1.5962966563
7.6241091424
-0.6388953172
-0.0135822863
0.0099284277
0.0107790175
9.4485992446
5.7137121660
-2.1489264855
0.1651764193
6.8856314228
-3.2716247565
-0.7469336413
-0.2361119210
0.0102487045
0.0047016919
0.0072893036
-7.2406848641
0.8175379424
-4.3702302466
7.0373563310
-6.6670017738
5.6071666582
-0.9565354171
2.9343856491
-0.0181004020
-0.0103640552
-0.0016370452
-7.9832180203
2.9969149149
-0.0706626098
-6.4215744910
2.5453386072
-11.4517123049
5.6340992705
-4.7940214569
0.0000016004
-0.0032260640
-0.0053579357
1.9795394802
-9.2627513734
-0.5713433929
0.6710067079
-8.9124236491
-5.4333796005
-3.1222692374
0.9686204961
-0.0084040327
0.0112363628
-0.0036520517
1.5472103322
-2.8764159006
2.4529126253
0.8318084194
4.5213121987
1.2340639092
-0.1679583770
-0.7449240011
0.0051289525
-0.0050661750
0.0057010781
-6.5424308241
4.5547606750
-8.0180440840
-0.7730627622
-2.2716609456
-10.5021460739
0.0372335943
0.4060222971
-0.0134293298
-0.0055423763
-0.0139131221
-0.7547191735
3.1153874527
4.2461852225
-4.8526395391
9.9069264398
3.1585729196
2.4156820384
5.2696549432
-0.0017728862
0.0001940142
0.0093234713
3.7364440528
7.1383506569
0.4780265188
0.0222120539
-2.0202707683
1.6082659649
2.9382817341
-3.2791885277
0.0126451013
0.0160633576
0.0076309372
3.5784713136
4.3934630864
2.7659463027
-2.8032094671
6.9791188400
-0.1101998523
-0.4148130678
-4.2571378272
0.0005452002
0.0088179705
0.0152009884
-0.7545766045
1.8988396440
0.7684078713
1.4371086576
4.5615860639
1.3061808523
2.4106761245
1.4300129333
-0.0117621114
-0.0093810169
0.0109852798
-9.7035094806
-2.4035025301
-2.4571861396
-2.3104818172
2.0326118185
-0.2088722050
3.1625009466
1.9376830528
-0.0082770987
-0.0128143053
-0.0104588228
2.0850328322
3.9515886274
0.2754915231
2.3882609023
-4.0268056879
-1.5984022034
-3.3846875769
3.4152555964
-0.0003147804
-0.0107162853
0.0057594853
-8.4956383281
-0.5985620332
-2.3182014421
3.1413011527
1.5305370332
-4.4918551488
2.7608434184
-0.8986101277
-0.0068615313
-0.0139041647
-0.0116289226
6.4051309987
-1.2852784446
-2.2920828110
-1.2425515918
-0.0092775855
-3.4136648258
1.4864864623
-2.9579708966
0.0030092345
0.0159645992
-0.0074888430
6.7841023329
5.1235152378
0.7152200385
-1.8414540210
-2.4059932570
-2.7481009561
-2.1417731627
-1.5965460174
0.0004739440
0.0137033668
0.0147042762
-4.6465293272
-5.1386340130
0.4569371584
-0.4712745497
4.0673880546
0.4402696338
2.8065704277
-0.0385810043
-0.0098194139
-0.0116009188
-0.0057524758
1.0430953499
-3.8446674874
3.5447347887
1.0406631741
-2.8438657812
2.3005608639
-0.0304744208
0.1765970402
-0.0026596620
0.0058241488
-0.0014689562
-0.4877740464
2.5392573139
0.2487432635
-2.6907474897
-0.3123236150
-2.3754144606
-0.7111925977
1.0033653394
0.0140939783
0.0012331155
0.0030425742
3.1505974238
1.4658342134
-0.6010952443
1.3558834943
1.1221837145
-3.2115211579
0.2427480931
-0.3455493277
-0.0129820662
0.0031323111
0.0032442542
4.7397043517
-3.5179114434
-0.2245141358
2.7526338714
0.0503949149
0.9872540697
1.2282362942
-2.0586577048
-0.0143914916
0.0077115729
-0.0125360643
4.6422295021
-1.3065463287
-1.5492146667
0.0599719225
0.5421827866
1.0084762094
2.1951431751
-3.8963766236
-0.0089147139
0.0011596734
-0.0074659032
2.4480065366
2.1469498703
1.6076130644
-7.3289993160
0.7723993019
-3.3061786181
-3.4944304651
0.4786818227
0.0132568935
0.0015781246
0.0150627860
2.0326386140
5.1391801956
-2.2388690363
-0.2755471254
-0.1028261364
-2.0530680440
0.1041514736
3.1470454900
-0.0075129571
-0.0032250437
0.0168132947
9.7416790729
-9.3789301460
3.2334445082
-0.7753444279
-2.4699250056
3.8146551375
-4.4735963875
-0.6775264339
-0.0157641704
0.0124348071
-0.0094514740
1.4439014217
1.1147134559
-0.8878774179
-4.1434332677
-7.6494560060
-3.0506958895
4.7858783218
-2.5037626859
0.0153859367
0.0160286108
0.0098013106
3.1534658268
4.3793112593
5.5499529259
0.4664096667
3.1386952007
-2.9546313597
-3.2636155371
0.9142552068
-0.0134451968
-0.0076581773
0.0148364307
8.9588353950
-6.1671922694
-4.1134747468
4.3970911229
-4.9021269059
-7.0629114898
-3.8089769124
-1.8331055504
-0.0119251936
0.0132358357
0.0047808384
-5.0676178444
6.1417316809
0.6466969599
-0.8640748431
-3.4908020880
3.4893700122
-3.3905907136
6.2271859005
0.0209316517
0.0083407426
-0.0060114956
7.1294344190
4.8411505821
-0.8070679826
-1.8125012634
0.1794554159
-3.5411204171
-4.9863732943
-4.6934215917
0.0007151044
0.0018227090
0.0064158569
5.1156728664
1.6240912370
-2.2221860901
-12.2813828685
-16.9192965357
-10.4331702466
1.2185109478
-0.5067768530
0.0020563024
0.0173673892
0.0185938974
-5.2580909717
-7.8767659118
-2.0329506498
0.4073189416
10.6520086351
-8.2266174517
3.6927170417
-1.7956260737
0.0028149992
-0.0186371696
0.0114331175
13.8898963318
12.7810754275
4.2776148266
3.3393936085
-3.7326722876
-7.1243764189
-1.1753390218
5.7871543001
-0.0226599685
-0.0056001675
0.0025839453
-12.3471428007
-12.8625736945
-5.1936195619
-2.0909084962
-14.5933057554
9.0771006829
1.6985966608
-1.2268462563
0.0055106071
0.0048034498
-0.0085538855
-9.3978973504
-3.7165306121
3.1995564467
0.5223678006
-0.4191655870
16.2151399622
-5.6438868174
-2.2715262439
0.0175904299
-0.0022362762
-0.0107205999
3.5150837343
0.2358733298
-0.6320350319
0.7145745101
-5.0772757581
-16.6983729234
6.6664567398
1.5476147604
0.0043085089
0.0109468098
0.0024480035
9.7600184182
-9.4074759354
-0.0307987969
25.5008728186
0.0077511733
0.0155781775
0.0046825056
-9.1103904954
3.7450682207
0.3874815116
1.9175732020
1.9552099763
-6.7985584623
-2.8630657546
-1.2749251931
-0.0232667457
-0.0088522391
0.0006508064
11.8309620250
-7.2237097096
6.7546589736
-3.0414319986
-12.1473051231
-4.4031049111
1.1112492266
-9.4435452496
0.0229265088
0.0001765247
-0.0018514853
7.6432210287
-1.9395912255
-4.3420669583
5.9006244849
3.8079919569
-13.5673048249
1.4780200593
-0.9358705330
-0.0040193964
0.0002762557
-0.0069144442
11.3458447035
-2.7947388506
4.1832164420
-5.3096733014
-8.6602058142
2.1115030739
-5.8129292750
5.0911661074
0.0074946753
-0.0038019519
0.0108172743
-12.4419340771
-1.7336839702
-0.2268401095
-7.6960069384
1.4133060383
7.6592163239
0.3994951391
-4.1797177871
-0.0007002640
-0.0103880764
0.0038857356
0.0837325335
-8.6786722982
-6.7660595943
-5.6909535231
-0.9414070781
-2.7941205382
-2.3208932327
-6.7781365993
0.0007531819
0.0011141693
-0.0045924475
1.3335674285
-8.5332088729
-1.4122199646
-0.0710573378
10.5158402436
8.4039410261
1.8393120117
2.2447049710
-0.0103196147
-0.0048316473
0.0158560852
-13.0680854657
-1.6846615464
2.5139006494
-5.2979758743
17.9644047968
11.0082878612
7.0005700055
2.9176256412
-0.0094654338
0.0071958174
0.0079634152
-4.2658920734
2.1535115746
-1.8132279886
3.2477992628
-5.8285080090
1.3063170748
-2.8257418242
-2.7864624639
-0.0076905028
-0.0057017929
0.0087443909
-0.9694020693
-0.3945820969
7.4021591722
1.5448880702
-3.7881867510
-4.3938072980
1.9239845686
-0.9600389871
0.0007120228
-0.0003652524
-0.0037218603
0.2756504859
1.0770187693
-1.3918243701
-6.3146855485
-7.2131021436
3.4499935936
3.0827565851
-1.8099376782
0.0129734164
-0.0122693569
0.0018888375
-6.8077495484
-1.2126021861
2.0510725535
-6.2348796819
7.9191311429
2.7687253891
-0.5986823334
0.4780037207
-0.0091341586
-0.0007211056
0.0112216518
3.5659944591
3.8335218121
3.6997604929
-3.0925685918
-9.8870895934
4.9192435471
1.2848902705
1.5019083578
0.0073457200
-0.0005081251
0.0089484268
-1.8996261163
2.0007196447
-2.7341727477
1.3910576599
2.4635858675
1.2885159146
2.6066907037
0.6431181577
-0.0056226571
-0.0094381031
0.0072325047
1.6194401808
-3.2765752933
-2.2751013500
-7.6276272937
1.9960638884
-2.4391375333
-4.3727581420
-3.2242922928
0.0108913073
-0.0127324022
0.0002345027
4.5768757273
0.8682663774
2.0275937227
-2.5518253798
-2.6775541274
6.0535529775
0.0593561379
-4.5920987838
0.0057343145
0.0109056315
0.0166245040
2.6236510255
-4.4544258368
4.4559801332
0.0453960976
-1.4861306556
-1.9239281627
-1.8100804336
0.6189062268
-0.0025457250
-0.0105008210
0.0105654755
-1.2998257013
-4.3304580038
-0.1484163103
-0.3932300203
-3.4492398050
-0.5861457258
-0.6915511548
1.0749546223
0.0046887482
0.0005983140
-0.0093216822
-1.3746595290
2.5760515513
3.5703669530
-0.2113441044
1.2812208200
-2.7089018991
0.0672377780
-2.0653446878
-0.0085087656
0.0097168570
-0.0015328404
-1.8768124807
6.3076982136
-1.6574230661
-1.4302158350
2.2462673876
-2.8023110416
-0.4088215156
0.6972006383
0.0122467751
-0.0125860300
0.0130673667
3.0919479954
-3.9859353476
4.3199930736
-2.8067398314
-3.2299940725
-0.4111733008
0.6127972382
-1.1563191953
-0.0049863717
0.0111074210
-0.0040904778
-1.8104717739
5.2270759574
1.5250670575
-1.4566690218
0.0866606225
2.7086378584
2.2641401166
-2.1957562676
0.0029174483
-0.0005322911
0.0110227603
-4.4910025026
-0.6837819829
-0.3792287271
-3.5243705249
1.4571387470
3.4722598014
-1.4900713408
-0.0092010591
0.0056578874
-0.0091084933
0.0066698795
0.0861441461
0.8766803288
2.8530125951
-1.6082296102
-2.7471952447
2.1166679634
-0.9027550107
1.8071148316
0.0120560961
0.0064050348
0.0107493840
-4.0875037255
-1.4795731044
-0.2836803353
-0.5176867380
-1.6270331858
0.2987397185
0.7458628490
1.1450058328
0.0129992198
-0.0008226181
0.0030448038
0.9464394473
-6.5221240275
3.7041423267
2.0091797518
-4.8263514734
0.1440942722
-0.1313239494
-2.4822871783
-0.0056044417
0.0110652785
-0.0115308316
-5.2089277609
1.5624476841
-3.5591753543
-0.7199943538
0.9829222032
-0.7491969269
3.1023953337
-1.7191999845
0.0076598410
-0.0071950542
0.0034364058
-4.2313608173
2.9594043019
6.9589961315
0.4771175612
2.5821570287
-6.3992520507
0.0017926746
-0.6482478037
0.0064641094
-0.0125386752
-0.0037603449
3.9031193038
-1.5615339261
1.5465449107
3.7537933759
-0.1885461380
-7.1778263938
0.7640565324
-3.7712213984
-0.0094351741
0.0081170119
-0.0012823960
-4.5615207542
2.2184168822
0.7716899169
3.5738037859
0.4106582564
-5.3168212727
-2.8660912302
-1.3868967826
0.0008078105
0.0008432759
-0.0022332874
2.3972389176
-7.0851932598
2.5138425339
1.5210864301
3.0799634947
-4.1039671517
0.9840677462
1.1657746331
-0.0028733195
-0.0033563571
-0.0240320295
6.8696785327
-6.9876536878
2.6678072028
-3.2938568510
-0.7832246483
-8.9741151077
0.4895974542
-6.0129057722
-0.0066536330
0.0045895332
-0.0037076983
-9.6599178465
14.4403114545
3.6266407694
5.0518421596
5.0134919131
-7.2087307796
3.3092445492
1.6484074316
0.0194589345
-0.0102625153
0.0063736046
11.6705487360
4.5593305839
3.8551308628
-1.9923700123
13.9527130930
4.3321557896
0.4303059489
1.1725982182
-0.0135153975
-0.0083862194
0.0056333618
6.3808843450
10.0373752159
-1.7998036769
0.5925309373
-3.9510426224
6.7863428339
7.8008917417
6.4900767715
-0.0107811251
-0.0028794885
0.0036330351
-14.5264156027
-2.2345443920
3.5331698323
1.0601061104
9.5314917629
0.9806430762
-1.2060087651
-9.7442218152
-0.0066908640
-0.0151753862
-0.0062364122
11.4217861775
-0.9900210713
4.0899354528
-7.7398583463
14.5430893812
-12.2467390833
10.2666400982
-1.1231057835
0.0026760857
-0.0105377227
-0.0005883668
14.9297845416
-5.6625506117
-1.6328960704
3.6968252582
-1.3961997472
-14.1314334802
1.9161297827
-0.4405271703
-0.0092508036
-0.0049787641
0.0137162129
14.8784626968
10.3770655176
5.0670600498
-2.5537186198
4.6407711513
-3.8135598363
-1.4201744383
1.1866867730
-0.0053700682
0.0100380380
-0.0074361523
18.1144725899
-1.0121480542
-22.7212103241
-16.8957265509
0.0084618339
0.0163407706
0.0165539330
-0.5917941005
0.4646810166
1.0708166338
-0.5921482096
-4.6191661990
4.1599076168
-2.8583943570
-1.5231775408
0.0016340852
0.0008948444
0.0153194107
3.5731138423
-1.6035870778
-7.0284788610
-2.2957634268
1.1849737935
-9.9610892861
-1.9652855334
5.1602094233
-0.0076842915
0.0146680368
-0.0098480583
-17.9427554955
6.0173779899
-11.2472849218
-5.9461847806
0.7414540891
7.3093305992
1.5112756695
-6.2639023617
0.0034436019
-0.0106022153
0.0045639847
-12.3965568184
-1.7111318074
-3.8027572525
2.8288589467
8.0861638191
0.0103241423
-2.0058095578
-0.0019502809
-0.0276914535
0.0072089912
0.0138822637
-0.7367597841
-15.5469284749
-2.7836556878
12.2579455195
-3.4139778744
-4.6630719917
-5.7550862787
-2.3345153336
-0.0076280392
-0.0056815764
-0.0152450056
9.1443597653
4.7420274073
10.2071515781
-4.3740513286
-12.7553056997
-17.4980514311
-5.7704287203
-0.4014979470
0.0157609750
-0.0009899269
-0.0136208342
2.1986017878
3.6634281411
-5.7578120273
4.3842995331
-3.9655382905
3.0557089317
0.9851514426
-5.2753507239
0.0131637421
-0.0092799232
0.0040281473
-2.6837546896
7.0788577415
-2.4097646918
-5.0742770399
-2.3397899339
-15.4640285912
-2.1982245955
1.2973646725
-0.0002003885
-0.0222939034
0.0044048461
4.6465466047
-6.6333813059
1.2609521050
-1.1425323278
11.8711626226
8.6833619713
-1.7384963162
6.8569189920
-0.0120515986
0.0003437997
-0.0005528297
11.0004836614
-3.1332540714
-1.8319900205
5.2592178789
-2.3539171071
7.1359594456
4.1029237349
4.1245231694
0.0147837656
0.0102790443
-0.0090447777
5.2585952855
-1.5475699845
6.8619602509
10.8128063246
5.7491763044
-7.3940999691
-5.6049559784
-4.2712598498
-0.0022578497
0.0063788683
-0.0147885633
5.4643301073
-2.2741702524
-2.9935421733
2.8709654864
-13.2735258267
-9.6505255716
-1.3825887136
0.0590369394
0.0163235242
-0.0097725726
-0.0220174576
-2.8602924449
-7.2330419503
-0.4026220170
-3.3984129367
1.6047218942
-1.9847647928
2.5004726559
1.6130952187
-0.0045022456
0.0085511141
-0.0145100807
-1.1199084873
2.2206212417
-0.3521027710
-0.9063900896
-5.5860811479
-1.4039274149
-2.7300226840
-2.0734229614
-0.0019006975
-0.0123800282
0.0011890970
2.9253996643
0.2159405109
1.0945980893
1.3148380173
-1.0926017511
-2.6683090078
-1.5975642779
-2.2540093536
0.0074393563
0.0007435947
-0.0001083636
7.9196238711
-1.0516499205
-0.9865336979
-5.4630343700
2.4274820420
2.4469833068
1.2512553714
2.2381896897
0.0026600810
0.0091388278
0.0027511792
0.2626360961
3.0339615074
4.2704576089
3.0021691537
3.2183679109
2.7000400803
4.3856625449
-0.2908616600
-0.0094151469
0.0116885815
0.0074003460
-1.4315295067
4.0012873439
0.0276930902
-0.9824978548
1.0524188003
-1.9207595249
-1.7560431369
-1.1394788922
-0.0009926599
0.0042983843
0.0037431872
5.9973342591
0.9469059300
1.2795123659
-1.4620185473
-1.2985165752
3.2922912816
-0.3775038760
-2.0242619442
0.0161020411
0.0055612342
0.0016924920
1.6461349321
4.2583797296
1.3271429881
-1.8053259792
-0.2092211395
0.9743140290
-1.1269266897
-0.6809562298
0.0122247754
-0.0017545812
0.0119800094
0.2923420729
-6.4005488167
0.2724844972
-1.3164895537
-0.0617356814
2.0226278071
-0.1384463611
2.1263807320
-0.0167915011
0.0047676385
-0.0008969668
4.9337642701
3.8305656801
-2.5064154344
-2.2542243474
-3.2912182861
-1.3215741076
0.8481158423
-1.5894714887
0.0199302087
0.0060275217
0.0051479888
0.1876304427
-1.2601291262
-0.1002330925
-3.7094961689
0.7403545531
-0.3673784168
-0.2995585730
-1.6273726808
-0.0119661370
-0.0012763825
0.0047616651
4.1161128032
-2.4531328473
3.9870853346
0.1858000808
1.1624497930
-3.2139048064
1.7895090227
-2.0048822348
-0.0305376475
0.0023552132
0.0051408971
-0.6244963440
7.1227635792
0.4556237704
0.1012970600
4.3837136135
2.1956915668
-2.0982749552
-0.6976404257
0.0060874030
-0.0032191190
0.0119623543
3.2212069878
-3.4944807127
0.7751881745
-1.2250181973
2.6269134922
0.4586833938
4.7876101768
-1.3885051507
-0.0149919720
-0.0063434147
-0.0082961890
-0.0784028105
1.4115907418
3.6506918420
2.0098912515
3.3696341531
-0.1860042665
-0.5770071328
-1.1687554071
-0.0129073594
-0.0084358119
0.0090800285
-4.0893151131
-3.2318750798
-1.2849558428
-1.1532669110
0.0124454842
0.4658925781
-1.6517147390
1.7657356390
0.0086719920
-0.0006136952
-0.0042214405
1.7408226669
1.0978231400
-0.3593747529
-1.0462088806
-5.4572081840
3.7694332029
-0.3648576314
4.8964439276
0.0076878860
0.0130066874
-0.0049352825
6.5201369921
-6.9472574910
0.4658214926
-0.6529607520
2.2806852616
3.9419162968
0.7107427020
4.4600084687
-0.0132123427
-0.0029446424
-0.0044379474
-3.5351310889
3.4162016000
-3.1421927733
1.1794496458
-0.2610488152
6.1628493980
-0.9951422028
-1.1433873164
0.0019602239
-0.0009667067
-0.0023549521
0.2995239714
-3.8546282372
-0.8302486917
-2.5228243160
-0.7652441824
4.2614037915
2.7633216491
4.7230015101
0.0101483368
-0.0048986052
-0.0098582148
16.7746857076
-8.3025634470
-6.1929749379
-4.2745665005
1.6190369247
6.1864454844
6.9896005018
-0.9470763907
-0.0192589943
0.0055596933
0.0049069844
-13.4185116077
8.8721609467
-1.8634505705
1.1323615192
1.2141837983
-7.6815019936
-4.3096857003
-0.2138290104
0.0227820215
-0.0002385185
0.0088285320
-19.7745931924
-13.7153976038
-4.7422197912
-10.2333378761
-2.4791398010
10.2837302434
-4.1065016720
3.9528347079
0.0163730018
-0.0005603756
0.0035649066
7.8485260825
1.4016947003
-0.7010020339
0.3830279838
9.5894469164
-8.5213737374
3.3628558021
9.3979979659
-0.0037394137
-0.0083224013
0.0036306095
-9.3013540819
19.7154308295
-5.5794668357
6.1550820140
-9.1282211125
-9.7683146639
-1.0753885053
-9.3564542816
0.0075954821
0.0016132211
0.0102297738
-13.7796162061
-8.0568938341
6.6883753813
-7.6564767382
-2.8086253565
5.7669374765
-4.2569164620
11.1289950623
0.0102835760
0.0013114150
-0.0125470153
-1.6059761243
0.5972644053
1.7745538861
6.1825974192
-2.1960294241
21.8854579701
-9.3979201478
6.3849102687
-0.0014516894
0.0087756617
-0.0032114630
25.5601729188
7.0666579560
-5.0097304344
-6.6532449389
0.0022337220
-0.0008059641
0.0000926238
0.5422483878
-2.6950864946
-2.9254163403
-1.3698849384
-1.3498385247
1.2979229343
2.3334756859
-1.9804984762
-0.0148527954
0.0094516358
0.0004522372
-16.2364292736
4.8388686050
-1.1830030575
1.5379903599
0.9984583558
-2.2969396794
3.2816663364
0.7563028227
-0.0133320921
-0.0011255591
0.0091397389
11.5552525053
-7.0423621820
5.4401146639
-1.7605198549
-6.1528935780
1.8471220004
-6.4876154128
4.2059736059
0.0122125277
-0.0096044525
-0.0013139853
9.2302081671
16.1395357789
-2.3221411748
5.6461516219
4.6447231882
-2.0834582012
2.2819669057
0.6392996744
0.0104224800
0.0026099357
-0.0042085776
6.7045892386
4.9673681919
8.6311257146
-3.4523271668
8.6205247573
7.2865716623
0.8602813640
3.1618962924
0.0042717488
-0.0008387801
0.0079798022
2.7848950823
1.4800584941
0.1490190267
3.7330801376
3.5368011813
5.5636860317
8.7395588601
-1.7193900565
0.0006079703
0.0224290374
0.0023496667
14.9882890868
5.6269259152
-2.0258928365
-6.7833433739
-0.8854086730
1.0210909696
-8.6008424144
-0.0682752112
0.0072263503
-0.0013571502
0.0025391477
-3.8171496004
-2.9293084772
0.7078268966
4.5250160029
-4.9407346056
10.4089472456
-3.5273694943
-6.3247138787
0.0023661342
-0.0048851456
0.0088205050
0.6134860694
-8.3864028659
-2.9711513392
-1.3672034760
-9.0584689529
-12.6018684951
0.7949476520
-4.8036607559
-0.0012773024
-0.0088487752
-0.0028423127
-7.0989184650
-2.9401290205
1.5344009894
-5.4739841424
9.1616296431
-10.0857124952
2.5054460317
-0.7811654266
-0.0082563870
-0.0009686284
0.0031697387
-3.1781950325
-5.6079106032
-2.2032579258
-4.5869860664
2.0928670175
-8.0199492403
2.9691184132
0.7831880918
-0.0118953942
-0.0036546989
-0.0062253102
9.1662715922
-6.6744911311
-2.2553984130
2.9369344815
4.7306962741
5.3544665479
-6.4638686796
3.6712817955
0.0009349398
0.0212839197
0.0021375838
3.7658615464
0.7671693083
2.3197094175
3.7211417852
1.2176195123
0.7739225225
-0.8170058026
-4.1441314010
0.0074311448
0.0045045076
-0.0104320874
0.9929037445
-10.1454005960
10.6504907674
-0.3966674945
3.5618388414
2.2100886902
3.2302198860
-1.4721667386
0.0015527501
0.0082467570
-0.0121667729
-3.9851439299
-2.3789494252
-0.3044684671
4.9855936579
2.0264605074
6.9408087429
5.3680903118
2.4928420614
-0.0033475980
0.0007991686
0.0001189314
4.3499526856
-2.5491714591
-0.4206434334
3.4084876368
1.7725459785
-2.4714879613
-0.9098494939
0.8057416463
-0.0000239473
0.0051368735
-0.0117120487
-1.1714608517
-2.0056199967
0.3923273141
1.9682465566
1.8550807289
-1.4481651676
2.0270363848
0.0945823828
-0.0012807729
-0.0124403423
-0.0112861870
-1.6167682954
-6.5271501082
-0.6655066934
1.7267983868
-1.9665268149
-0.7376280124
-1.4776248048
1.4784706877
-0.0019836936
-0.0023365988
-0.0107573902
5.7708200166
-0.1777206073
-0.9782617106
-5.0327596321
-1.1328850832
2.9073693684
1.0510294815
-1.2882329067
0.0171618422
0.0078267190
-0.0055709163
1.6228436852
-4.0044052528
-0.1599365148
6.1571808332
-3.7892447467
0.6120522689
1.1073080077
4.6722021449
-0.0111762987
0.0043923574
0.0049614487
3.5529323554
-5.0121071329
1.8151606381
-4.4108741377
-2.3503922936
-2.5597054152
1.5135841911
0.9782077232
0.0007519218
0.0091911135
-0.0179042730
-0.0139173251
7.9073789768
-2.2186988912
-4.4176255148
2.6058167015
-0.8761436736
-1.1786685896
-0.4934306438
0.0058088249
-0.0003864581
0.0124576780
1.2185467110
1.9345118619
-3.1989780272
4.5018388549
1.7524080400
-5.5554976598
3.1574406979
2.6766346859
-0.0143563850
-0.0100307173
0.0088177957
2.5414782537
-0.5950574437
-3.8073251753
-6.4615016366
-1.3087017331
-1.8397910788
-1.1090521801
0.6784419151
0.0213219694
0.0047235356
-0.0034325239
2.6189996886
1.6726296872
-1.0723154064
-1.7632086423
-2.3665764923
0.3843771210
-1.7463383699
0.7975519695
0.0189451670
0.0045138704
0.0123997529
-1.4671405576
-1.8752248885
-1.1197572581
2.8812712615
1.2420637232
-1.2907386869
0.8006978858
-2.3320917981
0.0020636788
-0.0020697179
0.0054863491
-6.6874441206
-4.1942267475
-0.1038408985
-0.5246227717
1.6284891334
1.7234970500
1.7714092908
4.2547774055
0.0132876571
-0.0135849830
-0.0080599206
-1.0880725026
0.0469063487
2.5104151002
1.9660782320
4.3405620200
0.5793117779
-3.6644178636
-0.0223519648
-0.0100715501
-0.0023703976
-0.0045866217
8.6395009131
-2.5190601957
1.4311406104
3.1883931764
-2.2313557732
2.7689611436
-0.3146951597
0.6002137859
-0.0144822612
0.0108335379
-0.0062379080
-0.9670428193
-10.3166507427
-1.8570222675
-3.9765917686
1.7223563494
-1.0667563691
3.4421775544
-3.1616614477
0.0023693585
-0.0072762375
-0.0182565287
6.9873966165
3.5238850852
0.7741964358
7.0841909045
4.3213761622
-4.6101127260
-0.4664772072
-0.9880661687
-0.0089904920
-0.0111634654
0.0060444910
-4.3314140354
7.4216267250
1.4217514066
4.2506855864
4.2274261519
-5.8870986452
-3.0086440343
-4.8822628843
0.0018664605
0.0008211756
-0.0046584124
-9.4192195110
-11.8269766756
3.5174861962
3.4563198137
-8.8336064440
-4.9481422434
-3.8045659440
-4.1568777494
0.0131677751
0.0071774316
-0.0145412844
11.8604267996
-2.7573021057
0.7422350115
1.7250388132
-7.5339267995
11.5039333049
4.0630193426
-1.7209556728
-0.0042861507
0.0155548664
-0.0065157063
13.3124925529
12.2198932167
3.5321457928
7.5437233453
1.1177006074
-10.9500626210
-3.2581250186
-6.0669800582
-0.0171767470
-0.0075075703
0.0031642166
1.0977076649
0.0356651042
3.1780434986
-4.3338663905
-11.6435237342
1.2698944870
-3.4517243567
-6.7705918366
-0.0038181901
0.0049414084
-0.0142980962
9.0660514754
-3.8910402044
3.0295231730
4.9493922192
-3.3615970919
8.9290902790
-1.4552120533
9.8333631021
0.0039321880
-0.0126298663
-0.0022032341
14.8591007627
18.2352096546
3.4138100427
1.5112027941
10.0115767350
0.1428861933
-4.2184822911
-6.6016477587
-0.0209488679
-0.0048213525
0.0003540172
1.9916406347
-13.0811825811
7.4333679699
0.1974760279
-16.1136219663
-6.1776710107
2.7290911795
0.6355683308
-0.0043715107
0.0092841376
-0.0051880031
4.7441109576
-6.0744760926
15.3136005000
11.4477010442
0.0163706899
-0.0185443636
-0.0064433637
-4.5784888604
1.3792337075
-3.7880280066
-3.5631624960
-0.5118513195
2.1587115599
-0.2346540636
-1.4027194033
-0.0129536122
-0.0065708857
0.0177585819
-0.5506294392
3.1553613046
7.8033652969
1.7882030663
-2.6134195598
4.1413829009
-0.5639952848
-0.3113963581
0.0219075970
-0.0025675718
0.0148340084
-5.4756848315
2.0793348605
-3.2562392616
-5.2521963603
-1.2109090603
-11.1512898691
-2.8372356132
-1.1316919544
-0.0071863312
0.0008504091
-0.0076903638
-19.8546131953
-0.6706456963
-0.5071074602
-4.6359470990
-4.8491717262
-9.4381618349
2.5117781633
-9.9679958055
-0.0068982611
-0.0076150760
0.0012978236
-3.8950441564
-16.9323753945
-9.9148892428
-3.2261014894
1.9769970086
-5.2062039540
1.0624038820
5.8924530008
-0.0146408918
-0.0060472859
-0.0028772368
3.5448578801
-0.4122630371
-5.0148295216
5.5255268688
-2.8245884927
3.8884414778
-1.8387195202
0.6600989627
-0.0061139225
0.0078681488
-0.0057215956
-14.7819238251
-4.3546353427
3.1897232621
2.2331089931
2.8020661419
-8.0794336232
5.1413198226
-2.7854271769
-0.0097572040
0.0009846569
-0.0120731906
11.0324957282
-1.4131830189
3.7158420610
-4.8303500574
6.9905749885
6.4410484470
3.0158095893
-0.6487094505
0.0144934234
0.0043399429
0.0000921993
5.6557545885
-0.1243099883
0.5778007210
-0.3764113776
12.1983289078
0.2554205666
1.5776332836
6.6332360828
-0.0122101096
0.0085241012
0.0022245803
3.7293597093
4.1885644857
4.7394987318
2.4824961334
-7.0312232871
10.5379711176
-2.2739866922
-7.9210468566
0.0144881360
-0.0051283987
0.0047509226
-3.1792381640
-8.0110863321
0.9436747391
4.1931232526
1.2222036592
-0.5885772403
-0.0291316154
-2.0678616181
-0.0056048588
-0.0073262714
0.0028091290
-3.1200159090
1.6683519284
-1.9599500564
7.3082077386
-0.3109675178
-4.4809671687
-1.4815975200
2.7670051305
-0.0003694757
0.0060251887
-0.0041645276
5.4721752421
-5.2556197873
-0.9655570763
-2.5511982174
1.2249650295
3.0983782864
-0.3301291468
-1.9721601721
0.0077563268
0.0040850877
-0.0151998189
-4.2617538964
-0.2834655027
3.0636651875
0.7335902572
3.0815057254
-5.7767227309
2.8730238513
0.9620858070
-0.0085132395
-0.0067860918
0.0058208712
-3.8497939651
-1.7964633624
-2.6740458795
-1.8012149357
-0.0310605668
-7.4158152654
3.2756889436
-0.4482073896
-0.0126206170
-0.0110639171
-0.0056737680
-4.4155041714
-4.6806686340
1.0146103690
-0.7205441763
-4.0438234510
6.5342587165
-3.0805588485
2.9677329224
0.0038213414
-0.0029899222
-0.0001281751
3.9037176820
2.0411670716
-2.1025597180
-4.3824136629
6.7309036382
5.0599299832
-1.8661700781
-2.0477711229
0.0123131915
-0.0028065317
0.0011610995
-4.6836755571
-3.3160981418
1.3602297861
5.9905350977
0.6489208346
0.5476153798
0.4168556874
0.6592542363
-0.0253413228
0.0014199729
0.0055968710
1.9531389139
-1.4093068167
-4.9619754747
-5.5025300099
1.6893118742
-1.6548066563
-1.5064803046
0.2186190511
-0.0007374251
-0.0006034622
-0.0071575615
-1.9636984381
-0.2060149364
1.6079728895
0.7167382055
0.1298628326
0.7423330731
2.4527260700
-0.6482503247
-0.0125607000
0.0046016016
0.0069933073
2.0832253728
-1.5567663764
2.2437508875
-2.7532453771
1.9926415939
4.4419091957
3.9559495363
-1.9356891552
-0.0035594687
0.0020685802
-0.0018542193
-0.3580561327
-3.1586070905
-3.9335031894
6.8297783132
-1.5727170367
0.6910686532
0.5429315396
2.8460866840
-0.0029614285
-0.0126060840
0.0009369538
0.7578404773
-1.2202102373
1.4987478646
-0.5804380977
-0.2609987539
-0.1755482338
0.1092041385
1.1459508330
0.0196977067
0.0025415711
-0.0122505570
-1.1219024695
-1.2760933249
-0.1273849677
-1.4532790028
-2.1083120325
-0.7061042469
-0.7658862949
-1.5067007632
0.0032898129
0.0051218305
-0.0112945665
7.9298507355
-3.2305076803
-0.8973659745
0.0715730884
-4.3507731653
-0.2849336022
0.0619411397
-1.5368757106
-0.0086213315
0.0130295252
-0.0039515936
5.4527599181
9.8025091066
1.2269968682
-3.0721731548
-0.9965504447
1.0556234764
-0.2373710015
-0.2457544593
0.0168945143
0.0117566167
0.0112531763
-1.3017232793
-0.8946950256
-0.2748057527
-1.4049770920
-3.8121611883
-5.6997238980
-2.5720606029
0.8180989366
-0.0101076776
0.0089158960
0.0081760250
3.4193870318
2.8304428460
0.6210403225
-3.6022717429
2.6403151563
-5.1647241725
0.8406419527
-2.8875817188
0.0078201459
0.0027246939
0.0013092976
-3.9086544077
2.9020978157
-3.6729062881
0.2337960189
-3.9151456784
-1.0784408530
3.4642381318
1.9711161503
0.0167026880
-0.0047112466
0.0118685411
-5.2050881092
-5.1427438260
-5.3680935587
3.9874610580
-0.8997939575
-0.6863726628
-1.3979901628
1.9033060624
0.0009779068
-0.0066258796
-0.0079722631
-4.8913714087
-11.7717869358
-1.0691379419
-3.7092650677
0.2844566118
1.0668974126
1.7748238859
-2.6862888043
0.0107003499
-0.0024045699
-0.0136824289
1.5625870239
-1.9969568796
-0.3517530689
1.0386876651
-5.8107807645
0.3070012983
3.7662583681
5.0220836643
0.0119060481
0.0027586696
0.0018372179
-1.6085882884
1.7960545149
1.9307336219
1.1429195822
4.5569676048
-0.8739471885
-0.5707286937
3.2234033708
-0.0078849873
-0.0036008133
-0.0064815182
6.9363745986
1.5863846022
1.0663237223
4.0537133800
-0.8166784625
-1.7266987339
-1.7829992726
0.1347853752
-0.0091594508
0.0037939327
0.0102722142
-9.7255692270
4.7840530446
-1.3127170746
4.7734102778
15.9727038799
-6.9177643231
7.2580221591
-0.8713841572
0.0087369998
-0.0144563068
-0.0009111355
-6.6614163871
-13.6668916890
-6.8823808640
4.3805724576
10.8400169138
2.1753317878
8.9136491943
8.8751947458
0.0072870769
-0.0161508640
-0.0082510188
-3.8441744992
-14.3853719755
3.5280179179
-7.8455173701
24.0213620191
6.7219608773
-2.5196080901
-2.4085001084
-0.0072692577
-0.0159370824
-0.0082926232
-3.0488036860
-17.8394497349
-1.9669640365
3.3343271625
0.2734195795
12.4083070440
8.4335038431
4.1897576754
0.0088954357
-0.0099656299
-0.0039429554
4.1078266079
-3.6593668930
-0.4693240589
-6.9094095117
12.2426048864
3.5027683981
11.2808150095
2.0209303151
-0.0043507745
-0.0028144955
-0.0043739329
-2.4838995303
20.3630644071
26.9612970036
1.5511662922
0.0191082938
-0.0139304672
0.0115883989
-2.7315371229
2.4361242343
2.3279318482
-0.1208794282
-0.9459798783
-0.2808628591
-1.5152477669
-0.2482053585
-0.0062534691
0.0010283434
0.0173568390
-9.0703633592
-2.2783867442
-1.1519741618
-3.1262145776
-1.7646296820
-2.0125501440
2.8291399760
-0.3152693997
-0.0101731872
-0.0034605997
-0.0080172266
-8.0199347568
-10.9660971322
6.4319646066
-0.5528134973
-10.0167243730
-3.3842790814
-0.9188854619
2.1039014791
-0.0065068366
0.0019778742
0.0024056234
15.0814134167
-2.9322539329
3.5305364491
1.1611215832
-8.4077748010
-7.7584505857
-0.8791603672
-1.3144617202
0.0165789399
0.0017682064
-0.0120648208
4.9290834678
13.4119751663
-3.5671398283
7.3068941067
-16.2212526522
-6.0980237614
-7.3837155704
-1.0310485724
0.0120672791
-0.0035450532
-0.0032570642
10.9537698288
-2.3603063880
4.0642534883
-4.7191519293
0.9021529668
4.0829281684
-0.9522767903
1.0971096049
0.0050436465
0.0054090053
-0.0079676721
5.2928931829
-2.3858969591
6.4137065012
1.8855412356
-2.7327477230
11.3888312505
-1.0880063564
3.5718320922
0.0051636393
-0.0035849861
-0.0020684081
-7.1532375892
-5.1349479099
3.3775903068
-5.0920197780
-0.7437723544
-5.2095829901
1.1076713884
-0.5572985068
-0.0021378213
-0.0021965656
-0.0092795891
1.0777196288
6.2575741788
-2.4783826681
-0.7421457634
-10.5732247121
6.5793134355
0.3663058548
1.3101267221
0.0120460847
-0.0076626305
0.0104663835
-4.4561697755
-4.4511871862
9.5499231136
-1.0587328289
7.1842842306
6.6541130113
-0.7996638968
7.3712128877
-0.0104116951
0.0030484529
0.0033228150
-2.6440179501
11.3859491788
-5.1097982004
-1.8183719316
-8.0414141060
1.2936298909
0.7638441636
1.1897337493
-0.0066115312
-0.0043135379
0.0019100713
-8.9662768134
13.0589972007
-7.1600840865
0.1508879257
-5.5502921437
-0.7894798671
-0.8432781701
-3.3827114213
-0.0023917410
-0.0011050634
0.0087747324
1.5274651770
-7.0809461861
-0.8794228895
-8.5677911307
-3.0892043919
-5.7176247546
-1.3192643353
1.7763549962
-0.0046686397
-0.0025171312
0.0054789581
7.7680537073
5.0100815457
3.5355975263
0.8051393026
-0.0302535717
-0.1100300552
-3.2444537157
-1.9035967870
0.0002441195
0.0003582001
0.0084476874
-2.9431794464
-1.0154945408
2.0433520719
5.1770050020
-3.2567802965
8.3988421538
-2.8072869431
-2.6160309420
0.0028614526
-0.0069133738
0.0068887681
-0.7789112310
-0.1675256247
6.9629419998
-5.2877869417
-4.1295700938
-7.6618072187
0.5387388944
0.3933067774
0.0076600002
0.0050494465
-0.0021966690
0.2265118217
-0.2129556944
-5.4969000173
-1.3768616826
-3.8572922598
6.3554715083
0.8740582555
-1.3355967968
0.0092556520
-0.0081780607
0.0025747632
0.9220454243
-2.5735884954
-0.9027837171
-4.4134478089
4.2568305587
-3.3315396712
-3.6823149299
-0.4592638726
-0.0035980105
-0.0008166511
0.0077276782
0.6098519665
1.6346633530
-0.3391705812
3.9022464789
0.7532811844
1.9931541638
-1.2889257791
1.6676102130
-0.0015812919
0.0005083622
0.0094100702
1.6474713500
-3.5504706270
-1.7474250594
-1.6369393894
2.1357163180
-2.2152432370
0.4896934994
-2.2598985571
-0.0015851490
-0.0041582174
-0.0060006873
1.9727451353
2.6448572448
1.3561508638
1.2106601339
0.7398872271
2.0116338811
-1.1513979910
2.5569888533
0.0196171589
-0.0036495797
0.0066113286
1.6332078799
-3.6428392101
5.3116350398
-5.4790349016
-4.8427759103
-1.6894048701
1.2585519715
-0.9955032391
-0.0022441525
0.0131369715
-0.0053915171
-0.8947186568
1.5864598107
-1.7796509537
0.0928807491
0.5463010737
-3.1255880965
0.3640223182
-1.6031574608
-0.0103394564
-0.0071707432
0.0039012713
1.4693055505
5.8237586838
3.4279793655
-2.3877283791
3.1978661306
1.7916594870
-1.5079235810
-2.8749749011
0.0020877862
0.0007332541
0.0074716277
-3.0131996855
-1.9326276804
-5.1216991999
-5.5317829958
2.0783530302
5.8138255693
3.5226392266
-1.9226915921
-0.0118287423
-0.0094889503
0.0077339558
6.8081043447
1.1976925979
4.0958898995
-0.7739133497
-2.1652771599
4.1641304816
-3.5267955334
0.5945231821
0.0015305434
0.0122301832
0.0140848378
0.4319722489
-2.4309132700
-0.0414949368
4.8687042441
2.4044939927
0.2915759977
1.5903737461
-1.1772513949
-0.0241678097
0.0032937658
0.0005010445
0.4733848463
3.1178057476
8.1557024637
-3.6294054903
-7.7445021835
3.2423071188
0.0084152912
-2.3889872456
0.0137094836
0.0086126785
-0.0115234994
4.1835650955
7.7649984059
1.7218437183
2.1013578461
5.1255994747
-3.2035345140
3.3429897815
1.8973817090
-0.0143410844
-0.0075446003
0.0169135229
-0.2070338922
-7.9588037422
-0.5025011249
4.3840587285
6.8093978124
3.0971731213
-1.5090365359
-0.3653556795
-0.0180625228
-0.0067176933
-0.0134103739
3.0413508120
5.4964087822
-0.7185215129
1.2223563455
0.3564960009
0.2552977963
3.6042591126
2.0592470202
0.0116394315
0.0011677646
-0.0071676855
1.8249502207
-5.5876795982
-6.0261769034
3.5939516793
0.7562730814
4.9797715118
2.1764947104
-0.3765128329
-0.0065300304
0.0044995947
-0.0020434083
1.6468646239
-4.6164387348
3.0331875638
-3.2525018540
0.0045454117
9.2903639398
-2.3607464237
-1.6204828124
-0.0013231707
0.0109808103
-0.0192407668
0.6892649166
-9.4958809436
-1.9381505093
2.1858017592
2.3154511898
3.1744521830
5.5518707439
4.9797190073
-0.0002974054
-0.0051224160
-0.0079994460
-2.3439039106
-13.7587784511
2.7325529405
-3.6652250125
-11.4109140226
16.2745223109
-6.5565894465
8.9981581432
0.0146098765
0.0106782676
-0.0137440010
1.6570749884
-7.7874033381
2.5920270708
-4.1882164968
2.5670514937
9.0589874165
-5.2742728177
-5.2421450207
-0.0131649571
-0.0000340539
-0.0149520588
-5.0798369182
11.3247084902
-2.0746743580
2.6953226904
-10.3138859678
-6.3929026132
7.9575071008
3.7458411094
0.0160010039
-0.0001956920
0.0041965776
-8.0627823346
7.6063065312
-4.5671789074
4.8916205825
-2.5714010464
-20.4249643468
-6.6043747118
-4.4995467392
-0.0024921224
-0.0044722158
0.0077261746
-7.8367359224
19.8659211978
-0.5543997415
10.5935252267
-1.3032404158
-1.6405104621
1.0073229404
-3.3404656784
0.0103762970
0.0100797578
-0.0022334368
4.6895083606
-0.1857942976
-9.6869347852
-18.5723859660
0.0257068882
0.0122371621
0.0102206509
1.1220408534
2.2348983509
-0.3173007728
-1.6529269739
0.0962963869
-0.3735330623
-0.3334509838
-0.2679586827
-0.0150798101
0.0006241227
0.0079052065
2.6213054488
-1.0492168845
-4.2408597612
-3.5238190423
-4.5428823694
3.1710989402
-1.3475091500
-2.7624356296
0.0050399909
0.0076680977
0.0088949864
-7.1291842346
-3.2418972606
-4.7257892361
-1.0083053992
7.9099289036
2.3740631798
-2.5443460787
3.6429096216
-0.0229166520
0.0057412542
0.0052149987
-16.3382923243
-4.0717556139
-1.2057223910
5.4517297543
0.9755766304
6.4254688376
4.8950897377
-2.5786194297
-0.0112096859
0.0049284350
-0.0008367684
9.4864221325
-9.9662047810
4.5973988917
5.2883512371
6.6612768542
14.8841435319
1.3764617559
8.1478652707
0.0105217367
0.0141543123
-0.0016592491
11.8575944722
-16.5830423631
-5.0846559121
1.8243522768
14.2156636586
7.4461208702
1.2684781279
-2.6511806494
0.0035101088
0.0126635390
-0.0171482851
-9.5146001159
-5.1774538261
1.6152996829
-4.5397260533
12.6507046151
-0.5119607012
8.6729094300
-2.8503543333
0.0026426033
0.0003780699
-0.0046276896
-10.4255519046
11.0334838838
-3.9465567211
2.6822907582
10.2481393613
-4.5885932092
8.7436890200
-2.5310045510
-0.0110252176
-0.0077785925
0.0112687123
-8.8972450161
-3.6845875730
6.6922663030
-1.3502981910
11.0226310117
-7.9847412614
0.9817892769
-5.3180100295
-0.0192103075
0.0001425720
0.0040887728
5.4119516062
-5.4059918256
-3.9616918236
-4.8904443200
-7.3178737766
0.0734620648
-2.8426089509
2.4355952958
0.0180463644
-0.0027031115
-0.0033591744
12.1917194616
-12.8414891217
-1.0687853258
-6.4541505154
-1.4215718767
-5.8819091387
-3.2251823237
-3.0410436608
-0.0085230997
0.0087254189
-0.0037915804
4.7462369911
-3.3827914633
12.4814772923
1.3516844996
-1.1633358420
11.6291792288
-2.4213257123
-1.9935333080
0.0215058952
0.0084241874
0.0066022937
10.8992353691
1.2080093884
0.0240683176
1.4017442086
-3.9041106047
-2.6607867412
0.2198142572
-1.2390813820
0.0111181775
0.0151715450
-0.0024573312
1.9815185057
2.2534003267
2.0712614139
2.7553078708
0.9317726671
1.1178519590
5.2264134145
2.0478306164
0.0056134610
0.0028353162
0.0001017734
3.1332105574
-2.0960825901
0.3001537881
-8.6792681623
-0.7311228599
-9.0426473664
-0.8050725719
0.7903922423
-0.0032808878
0.0048529504
-0.0030023970
6.9974105272
8.0615226767
-3.4078466656
8.8006923578
-1.0445698324
3.8806593166
2.2301630937
-2.3728110621
-0.0032725379
0.0202718408
0.0095573206
-5.0558081088
5.7363126810
5.9298992800
-9.7175927226
5.4917229115
-6.7580051957
3.8795880413
-2.5849880347
0.0002866305
-0.0059397997
0.0021983641
-1.2068430265
2.9266853063
-3.3634042594
2.5192854976
1.2165439868
-1.1342901101
-2.8055682262
-2.2063507200
-0.0064850182
-0.0065793649
0.0151385206
2.4104004114
-0.6118086580
4.2080306929
-5.7995672577
-8.0276326544
3.1005989591
2.6356744120
-4.3937913180
0.0107577695
0.0093982097
0.0007525378
-1.6847986292
-0.5508272399
-3.4196102104
-6.8152090023
-0.1935015074
1.3760057781
-1.0172502976
0.1798962739
0.0034118335
-0.0079729297
0.0164826497
5.7053774631
6.7261152949
4.7235576588
2.8803595391
-1.5281587628
-0.7690829304
1.2211336181
-2.3739953255
0.0091865205
0.0132830453
0.0165186872
0.9734338791
-3.7932257702
-0.1592221350
1.2327892886
-1.4385182095
-2.3319604775
-0.2881298760
3.8111364462
-0.0092119135
0.0070484292
0.0017477737
-0.1565082723
-2.6166415359
3.3896984226
-4.3244141037
2.3102366550
-2.1812412910
3.1093804805
-4.2944234514
-0.0065251241
-0.0018801595
-0.0065366509
-1.1509611559
1.9743129056
-4.5612384440
-5.6989379472
2.1514238933
2.6045914320
-4.8030379967
-0.2000293157
0.0105542943
-0.0058042651
0.0075244486
-1.0257536290
3.1631589833
4.4588287293
-3.5514750287
1.8506478376
-4.0646909024
-0.5625502165
1.2642440129
0.0017938510
-0.0032801893
0.0190171352
0.7044791018
2.6585350570
-0.9905289490
3.4157335854
-0.3919956321
-0.0832532424
1.5658075293
2.1554978551
-0.0046555850
0.0035650239
0.0107812723
0.2579418047
-10.2052738457
8.1986388484
-4.0005275268
-4.3276928709
-5.2532129390
-1.0574245929
1.0568757118
-0.0048175129
0.0087391592
-0.0060743944
-0.1668880120
1.7725602789
-2.3173243733
0.2016485727
7.0567974014
0.7652566533
0.5792064096
0.9694820397
-0.0005468047
-0.0044845554
0.0097280812
-10.3833012997
0.8251577206
-2.7646768253
-2.2761623697
-1.1233441254
-6.3237006206
-2.5782050450
-0.2308749971
0.0149643672
-0.0064873005
-0.0009870479
8.5532943893
3.6820585427
-2.4297741300
2.6012088381
-2.2089881895
-9.7514264258
-4.9028941879
-1.1551558728
-0.0081944832
0.0081203890
0.0038191180
7.3162485608
3.0334708230
-3.4603985348
-2.1706986866
-4.6925051559
-1.0268899701
2.9694437093
-6.0553948869
0.0061477708
0.0081940022
0.0026726129
1.5025751893
2.1688828483
5.1046257360
2.1207479124
-4.8450998553
-0.0342322601
-5.1887406322
1.9095617625
-0.0080579912
0.0051721099
-0.0013246856
4.6707079743
3.3850247800
-2.8018068829
-3.9112224225
-6.9344555236
-3.7105009963
2.3458879865
0.4227095866
0.0152805438
0.0213037635
0.0109274666
-6.0999918857
3.9832828128
1.6267819661
0.1345509813
-1.9997864017
-11.0486483888
-1.2858181718
-7.5591918603
-0.0030947220
0.0058901498
0.0095521312
2.9478556345
1.7432009816
-1.0570123058
4.0226220798
6.8191311482
-9.4101885143
1.5577872637
-6.9464892162
-0.0024504537
-0.0055813903
-0.0049781930
-9.8357078119
14.9617044285
-0.9209505790
7.0684447049
-4.4789909054
-9.2781673341
2.3581424477
-5.1934204469
0.0166038703
-0.0036418368
0.0027311630
-9.9328995515
1.9981469617
-7.3359284148
0.1980429104
14.4975407454
6.8822289685
-0.4481078654
-0.8968202734
0.0058139710
0.0038191927
0.0032295135
3.3337676749
9.2486806154
6.2818763602
-2.3524651880
15.5471979884
0.6095656035
5.0666528728
-3.9166583693
-0.0001613890
-0.0070179185
-0.0140968913
20.9577341753
-16.5622838248
1.7157837748
-7.6931571014
-12.6603400353
-1.8174355552
-5.2548734913
0.3664302008
-0.0115385509
0.0127439835
0.0040072011
28.6932223075
-7.1087588341
20.0158712269
20.5201784582
0.0028614585
-0.0033537116
-0.0045472689
1.5862607733
-1.2808210483
-1.1034378971
2.4870562164
1.9151397396
0.3822572569
-1.3055138999
0.7371742640
-0.0218432995
-0.0011003807
-0.0013898204
5.0478753231
-4.6096003620
-1.7144189413
-0.6743637805
-0.7740000286
-0.3878323251
-0.2194351180
-0.2517864740
-0.0028604460
0.0086707964
-0.0108281524
-7.0756585149
3.2552298579
3.8814610327
-1.1091877018
-3.1513680713
-3.1616789396
3.2716133509
-1.6297955047
0.0149247273
-0.0086920051
0.0026202285
6.4878425504
-1.6378214496
1.6031976746
3.9513438198
0.2193528442
2.0926532874
2.4982366034
2.3213489032
0.0065662149
0.0031015065
0.0041711841
-12.4463528968
10.6591847502
-2.3625722628
0.4797798566
8.6099333423
-5.4153005438
5.6844348712
-10.6930566449
-0.0019530043
0.0035150436
-0.0011127605
2.0668221342
-5.1680892029
-0.1237546419
0.4728477517
1.3452836001
-21.9051804239
-7.9460630004
-0.6588744536
-0.0082987421
-0.0092428132
0.0063677535
-2.8176340444
9.3904738295
-1.2226182709
0.0896013080
-1.4126074510
-10.8296191673
-2.2840975324
-1.1682099484
0.0015919182
-0.0170937377
-0.0040671863
6.5158711109
-3.4149975835
0.5681289737
3.8750694657
-17.5289597768
-6.3298490763
-7.3526445103
-2.1292183484
0.0065468966
-0.0193515063
-0.0012050805
-4.7251809587
-1.5345892476
5.2052579613
11.6261945257
-3.1910806466
4.0294946872
1.7998185380
4.5483080616
-0.0018239075
-0.0076503981
-0.0123889584
-4.1432066478
12.0397506760
-5.0173265217
-1.4732366709
4.1514399012
-5.3137173659
6.1244425691
-5.5792552062
0.0039783152
0.0057986633
-0.0102669309
12.7003698064
-7.9467165728
-1.8278477777
10.6586473269
11.0731754583
2.4605575915
-6.4395736083
-3.3525454982
-0.0083389536
0.0161910634
-0.0055732855
-8.7339631320
-3.0491451381
-1.8071291711
-8.2419151490
4.9182135840
-9.7544888066
3.3176246564
2.7895025253
-0.0078471353
0.0031806676
-0.0129129457
4.9028807122
9.1383527589
-6.1308250617
-2.8886926663
0.2116994907
9.5673153549
1.0294380846
1.4667474962
0.0006249066
0.0103448946
0.0066488908
0.8246310307
0.5906672682
5.9430938689
-6.3047709343
8.7331103243
-4.4845991143
-5.2001932372
1.4588871135
0.0003941706
-0.0029147270
0.0124131228
-9.6747978274
-0.9024846101
3.3877712129
1.7187247106
-1.2948670026
7.1107486854
4.0858961318
-4.7465861238
-0.0074296241
0.0044690106
0.0070976447
7.6096231838
-8.7881020496
-0.1585766614
6.2203374009
-0.7897740222
3.2236962373
-0.4821686289
4.9123112584
-0.0085350703
0.0020340356
0.0013838430
-2.0256321423
0.6247657749
2.6808714424
3.4819236381
-2.7218513802
0.8529079540
-0.0050211314
1.7917561994
0.0092613808
-0.0129271813
-0.0107032151
-8.1946838991
-6.0583339722
-0.2054714697
-4.5025294109
-1.7577828867
-4.9997440624
3.7054484797
-2.7221620042
-0.0055066371
-0.0033956423
-0.0135325945
6.9133426169
2.3679165618
-0.0099932774
2.8666506992
-1.1359987083
3.1013076733
-3.7105188152
1.9958973618
0.0134465945
0.0188918298
0.0048492427
7.7256507231
-6.6390296976
1.6907389848
-3.0186210693
6.9033389061
-2.9070953046
2.9637480087
3.6300457431
-0.0117447744
0.0052272159
-0.0058671525
1.4999478441
3.8377113785
4.7480548122
0.7597887492
-3.5343210219
-2.3993427328
0.2439776730
-1.5572539519
0.0044983097
0.0025249172
-0.0011904043
-1.8382242980
-0.1495845214
-3.8693772033
1.8863428525
0.9266239257
0.2827209928
-3.5724066424
1.6806938348
0.0004498816
-0.0030106440
0.0025207424
-4.9650551984
0.3859366567
4.2556553371
1.3696318829
2.0633167169
2.8105022544
2.0961414333
-1.2592984562
0.0042080180
-0.0068457588
-0.0074474788
5.8406941559
4.2378133259
-6.6675377037
-1.0373357017
-4.3041858203
-4.5663182750
-1.9514444493
1.6276974055
0.0058638573
0.0044292143
-0.0025604972
1.7277514153
0.2746693945
-1.8548597308
-5.6771454303
1.8760457394
-3.7439457315
2.5751459327
-1.8469535461
-0.0067711998
-0.0020200766
0.0022325622
3.4282165330
7.6298004271
-0.2640730592
6.8908961565
-1.5256839925
0.1836213315
-4.4234784027
0.1569799843
0.0106578368
0.0079324714
0.0148387174
-0.4160516928
-9.5835740765
1.8641649471
1.9598467862
-0.1629001540
-2.9650550960
-3.7286044338
-2.2422416140
-0.0231606358
0.0099014062
-0.0134981930
9.1479111379
-3.1348393743
-0.1575351567
5.8581573617
3.7701938733
1.2189462067
2.1758845524
2.6573071444
0.0015508935
-0.0013556405
-0.0143998501
3.2129328456
5.4092908374
0.1345500307
-5.5296239361
-4.3495782890
4.2657622029
3.3289725836
-1.9232340711
0.0100706798
0.0067612265
-0.0091420621
-2.1082229260
-0.8494538554
2.2055415912
-1.3730044865
1.8842594413
1.9390217406
2.0616671725
-1.3809576729
-0.0116967700
-0.0146843718
-0.0025367617
-5.1647326800
6.8707131665
1.4907071404
-3.3295822503
4.2290956955
1.5813906401
-2.0739828663
4.2897651880
0.0094967702
-0.0116246953
0.0087404377
3.9131863309
-5.0177852273
-1.4178591262
2.4776707437
-1.5311124165
-1.2800179661
3.1592766001
0.6738227795
-0.0199619047
0.0030277813
0.0085318127
9.6747016498
0.5324707343
7.2365940362
3.0392087140
-10.4899529040
-5.2343498510
-2.2477707598
-7.5086452567
-0.0073507300
0.0112567101
-0.0086306002
9.8059839595
2.5979979087
-2.8795048369
-4.2396414810
0.2876075172
4.7227747173
2.3532464323
5.0660476346
0.0034865818
0.0069251191
0.0024627345
4.2433462435
1.6485955234
5.0780910290
-2.2565216401
-2.1763653915
-5.1015141783
1.5819666015
-1.3803318336
-0.0066759834
0.0032375410
0.0054759161
2.5170874191
5.9378558191
1.3785169647
-4.3400714877
13.4656160452
5.9311183948
-3.8518549296
9.4931328540
-0.0070202440
-0.0068664765
0.0129450813
8.5922920641
-6.6987545081
-0.1879332466
6.1286030301
-16.6249091771
2.9049375105
-4.9941929177
4.0365734688
-0.0098042181
0.0207370790
0.0060935503
-11.7849752516
-8.4192875466
-2.3723270683
1.4058753333
-13.4645248428
13.9577736175
-2.9660215874
7.4333056527
0.0217924452
0.0135815367
-0.0030386662
1.5949847878
17.0790761894
-2.8159988386
0.6934540308
15.5952461495
4.8493141810
1.3077789254
-3.1765512679
-0.0005949438
-0.0028672556
0.0087850324
-3.6994463850
5.7950849266
-1.0170981746
-13.1490101006
0.0214346934
0.0083847239
0.0141897357
-3.4373457271
2.3282518209
1.5414319307
-2.1805890902
2.5078782254
-2.5127899714
-1.4777178217
1.9295321274
-0.0053491589
-0.0110016587
0.0067867894
-7.0522431508
0.0791246762
-4.3470588236
-1.7107798404
3.2144511550
-0.1487743606
0.8183950227
-0.5867855900
-0.0081351488
-0.0116555700
0.0026718152
0.3258785539
3.5690912842
-1.0231220759
-0.7422549991
-4.7275911796
-0.1685958953
-3.7772623739
-2.0981164788
0.0142770235
0.0031582003
0.0102998456
-9.9774922970
-0.4811155909
-4.0617978682
-8.1805972991
-1.1547001157
-3.5304983538
-1.8956620485
-0.3372847029
-0.0137459313
-0.0131393066
0.0010194873
-13.2097995250
-13.7318762065
6.9787048188
-7.5694658124
1.1812386883
-1.3944526396
1.1848446307
7.6645041079
-0.0097783385
-0.0159489487
0.0078382101
1.0261839193
11.0185528131
5.3033788199
-0.3934072082
-5.8220420107
8.7068747111
-1.6804002105
-0.6591709967
0.0062870128
0.0030009066
0.0021475002
0.5329169304
-1.9701305399
-5.8252218694
-6.3070177295
-3.2378568396
1.0784073913
-1.3047731520
-1.0293027957
0.0158522439
-0.0090766858
0.0109681951
-4.5493773773
-15.3243965354
14.9364056691
9.3841653775
11.8964101779
3.5624676610
3.1450819299
6.8982155655
-0.0193094924
0.0099907493
0.0048249067
2.9141743598
1.5929373807
4.7230626432
-8.4622978666
-0.5981653690
0.9181238026
2.6851854356
-1.3857223352
0.0191017229
-0.0004940118
-0.0134146648
3.3596331432
-15.4509699885
-2.9049825562
6.0981441252
-4.4789546365
2.8516079995
-6.3756145809
9.2857447781
-0.0126686683
-0.0016870798
-0.0075935056
-5.3439942162
0.5530288982
-4.8805337861
-4.9494687243
-1.4284736216
-2.8031600153
-0.5584180177
6.1117522682
-0.0023612062
-0.0057221746
-0.0169606871
2.2737718288
6.4654770993
-1.1102079873
8.7096379915
1.6682268319
2.6244861090
-1.1402315476
4.7188062164
-0.0010286141
-0.0025647707
-0.0037897689
-1.1612521353
2.7491595097
11.7652798865
-13.3315721134
-10.7510006954
-0.3561912625
4.6715575985
-4.5845988987
0.0147919736
0.0033428806
-0.0134145898
3.5647081320
2.3609353576
-11.6738048396
6.8413598434
-4.3462740710
3.8680226588
-1.7867565595
-4.0085947945
0.0071837093
-0.0018803593
0.0060615598
14.4112085692
-13.1772135067
-2.4601976669
-3.2032019114
5.4751337542
1.9908205608
-2.2387347884
2.3061616806
-0.0023352843
0.0014187600
-0.0024733921
5.4282919762
7.1758352623
-2.1457478815
-1.0125176212
-5.0570584668
8.2283935528
-0.1543871081
-2.5563886769
0.0161889477
0.0062300596
0.0048094293
3.6607113547
-6.4658960980
-5.2607043370
-3.0724704486
2.2745515621
-4.6044229855
-0.6806270079
0.7854883127
-0.0040211123
0.0006655413
0.0030570834
-0.5560514898
-9.6403056434
5.3134676217
-5.5392470890
6.4893984893
3.9241719844
2.3946871303
-4.6859246219
-0.0203338796
0.0030600800
-0.0037271309
-10.7055379752
10.0651312856
4.2864549437
5.8811454800
2.8945791117
-1.8031114907
-1.5492731121
8.1788326723
-0.0048781159
-0.0084221550
0.0190566010
-0.6266846124
-7.8330623847
0.3512713138
4.2327263268
3.0375292842
-4.1498731633
2.8761742044
-3.7476219868
-0.0151178128
-0.0105187319
-0.0110037234
-6.2246628826
-8.4188703222
1.7947955016
-1.8434000795
-0.6899185543
0.5845466593
-4.5255768612
1.9179944484
-0.0046321687
0.0018822091
-0.0109699494
1.2588089863
3.1076927923
3.5714586078
3.1921040943
0.5072955716
1.4105362701
1.7577619209
2.4781917042
0.0039663001
0.0081531793
-0.0073996176
-3.5007154882
0.1285222577
-9.2313484385
-10.4663463791
3.5454822091
-6.0838224070
-6.3341785061
1.5786775167
0.0101711723
-0.0139906915
-0.0055702001
7.9989494514
-4.7113965353
-2.7236079508
10.9727189221
-0.8495710816
-0.0721836783
3.6866406521
-3.3519815325
-0.0241905833
0.0139714127
0.0054499357
3.6065505526
-0.0819095879
8.7965859922
-2.8520971849
1.8303563307
-1.7979462467
-0.1917004024
1.0880565572
0.0098048218
0.0019660440
-0.0120201823
-4.8589560485
3.8270923712
-8.8447562592
-0.0674377292
0.6223603198
2.8328434341
-1.8365020033
0.1648643978
0.0070205216
-0.0079012851
-0.0016363884
2.6165339792
-0.8473577861
2.8661364389
-7.0424217247
-0.5368573041
0.3518028458
1.9728302739
1.5540272962
-0.0038105115
0.0065467504
0.0004735924
0.3447660870
-1.4027396133
8.9081533016
4.7693247096
-5.8938171981
0.0404060883
0.3792887662
2.2412700103
0.0023276708
0.0089492034
0.0080607052
-2.1000368956
-2.4906285029
-3.4676432177
-1.1061463845
8.1479263124
-5.9838714108
-1.2483132365
-1.9430103313
-0.0034915202
-0.0169437295
-0.0052245622
1.0309152337
4.8975635269
-5.5718699488
-6.8891828185
7.1377172024
3.5149658526
3.5414597495
-0.1966494339
0.0063762081
-0.0110287027
0.0079413514
-0.1826477317
-0.7740050673
5.2024905173
4.1860827522
1.6785064893
-7.9088008502
2.1534838641
-3.3866603177
-0.0204944835
-0.0102387841
0.0081926772
-5.1492959487
9.9278906706
1.9984730603
-0.4351852986
1.2363221547
3.2542942691
2.1017351063
4.0279738521
0.0143340172
0.0044195769
0.0061388390
-1.3493001572
0.0159956317
-2.7643274171
-3.5523448217
4.3627970141
-0.2802832425
-0.2407545713
-2.5442289767
0.0033963125
-0.0147823723
-0.0023967123
5.2982449465
-6.1190237540
3.5999793743
3.3962240239
-3.3894552063
3.1972579085
-0.9990989691
-4.5809099961
-0.0162226059
0.0043972944
0.0051469773
-0.0725981800
1.6059630753
-8.2782769657
-3.7741036810
0.3107800622
8.5665544283
3.1729615150
5.1073589979
0.0080350965
0.0053009445
-0.0043748758
4.6331741798
-9.2238217148
5.1050253452
-2.4590115029
-6.8090437495
-2.5664918235
-0.6440945305
-9.7340426415
-0.0082883336
0.0069528224
0.0010826984
5.7622980769
-8.1103517380
4.5951590744
-4.6363819426
5.2915525532
-7.8357098543
7.0959534066
-9.0636473291
-0.0062107331
0.0028023848
-0.0089951054
3.8755045918
6.5101932495
-6.9850026618
0.2965985513
1.7937635345
-6.1785670930
-4.2444063801
-0.1796427042
-0.0034280234
0.0001209504
0.0031899872
-5.4036440393
-7.0055145108
12.1023859445
4.6106088596
-12.0372256455
-11.4138754039
-2.5041551718
6.7037329825
0.0170472379
0.0093470506
-0.0048921804
31.0611091985
-10.2848923191
-15.4264919298
12.7969999636
-0.0012558813
0.0070031946
0.0015711355
1.4399451578
1.3932117950
0.6894043089
-1.9417675926
2.5163065302
1.4863453853
-0.5602903614
0.6690597722
-0.0158850970
-0.0015213072
-0.0002754171
-4.8781301316
4.3622642873
-2.4986355726
-4.9082848268
-2.5642073733
-1.3134672610
-1.3556628869
-1.0812516634
0.0175342975
-0.0031580855
0.0169829632
-0.7539662789
-0.4153002929
-0.5993261677
1.5310320241
-0.4120136702
1.7448381383
1.4666166685
0.8038698053
-0.0241754636
0.0065022066
0.0038325230
5.4629346191
4.2782257214
2.1682284771
-5.5799266495
-3.2706149679
-1.5458854334
-1.9998897411
-2.9578865138
0.0241339364
0.0094308051
0.0023904445
-1.5608113168
9.7286757947
-2.3503819344
7.5984098369
0.0768459626
5.7068816985
4.1361926158
-1.5735246245
0.0013352552
-0.0113541435
0.0165868215
-4.1548082844
-0.8106848445
1.0184067036
-14.5153710587
4.9600599122
-10.3047053744
2.9601741146
-3.1225977497
-0.0082457146
0.0008443188
0.0014051289
3.0679917256
0.1727748908
-1.9266659892
10.7431186864
-1.6252338993
10.0407660010
5.0052585083
-2.4507449764
-0.0041027831
0.0012243783
0.0129884727
5.3108994499
-12.6276344048
1.0564115465
6.0763979134
-4.2658810079
4.0085102063
-5.1029310850
8.9327951417
0.0022038436
-0.0031975399
-0.0005196817
7.8074484963
-4.3256067481
-3.6874712125
-3.1176035587
-4.6261527660
8.5417028000
-5.7476120609
1.3066804945
0.0028858187
0.0029922582
-0.0107464657
-5.0889766134
-1.1735483716
0.0177709799
-3.1959095557
3.0757071136
3.9562012249
-3.2691999817
-4.9174059661
0.0062901135
0.0013869999
0.0035167920
1.5787589871
-15.5200282456
-3.2210604908
1.1390076746
6.8320112825
-2.3154519877
5.0625352135
2.8061368897
-0.0160684535
-0.0000249308
-0.0061988463
-0.5038465981
-8.1533237264
-1.6783028865
5.4184066123
-2.4119699777
4.3947526792
-0.9837501033
-1.5853710753
0.0073361183
0.0004852029
-0.0088145433
0.1712749627
-13.2164469637
18.3107855479
-6.1578088506
-0.8459180922
-1.5895841629
5.0693237737
0.9535575360
-0.0028413109
0.0145605005
-0.0109310821
-0.7447191463
-3.1689816124
0.9519122672
6.2253136310
0.5096229407
2.7244716802
-4.5927138168
7.1094830878
0.0046712954
0.0006787090
0.0004086505
1.3779439931
9.5612334306
-4.1483172082
0.4183885764
1.9872327604
-3.0997888274
2.8824132587
-2.3733016682
0.0095128666
0.0046178238
-0.0126817634
1.0305728848
0.3139453700
9.1971552553
-12.0931963061
7.9927494805
-8.8712918177
2.5612505232
-2.3226436418
-0.0026540470
0.0068180371
0.0002712969
4.8672075017
7.7344881144
-3.5552563379
-1.9098673854
-10.2762025650
-2.3933657327
-2.2828455442
-1.6490720322
0.0069846472
0.0020723633
0.0100322648
-6.4925958780
1.3306931283
-9.6643404928
-7.6720313177
4.4088485371
5.2050918879
-1.8122451092
-0.1648156814
0.0006291285
-0.0247991212
0.0137736431
-3.7961814502
4.6557541172
13.0370934169
-1.0667847755
4.0031175707
6.8008902006
4.3757603893
-5.1932047063
-0.0045783439
0.0040805350
0.0172618007
-6.4861842677
0.1823594879
-8.4427001446
7.7611157249
0.4667576870
5.6803285876
-2.5523019999
-1.6632508775
0.0004842889
-0.0125611405
0.0122307185
6.3777668476
-11.7074076957
5.6821212853
-7.0307381244
-0.1357093148
-3.8714844420
6.0953109942
1.2432114379
-0.0263050078
0.0116495886
-0.0084484679
4.4632455811
3.9017322713
-1.6237382950
1.1854165284
4.9427653263
1.5200754042
-1.1119904167
-3.2965307256
0.0009841704
-0.0067965794
0.0070381131
-6.3490363019
-2.5595585569
-4.9415173622
11.9001130353
0.0431708390
-2.4392970112
2.3343813053
1.5993181278
-0.0105503955
-0.0075010765
-0.0013479541
4.7464278468
-3.0510256312
5.8780121334
2.3861096229
0.5731713897
-1.8164633897
-4.7036024258
3.5002890545
0.0201576238
0.0053199015
-0.0135366498
0.8825571727
-2.6460799406
-5.9753218713
-10.6768102973
-1.3246481742
5.6837324516
3.0149474811
-2.2127571957
0.0037224571
-0.0032732535
-0.0162784078
-2.9624694476
2.6068115308
7.9957231216
5.9693845979
-3.0989481831
-7.8084336155
2.7656664554
0.0981663447
-0.0028846931
0.0017448000
0.0080738942
1.5940710825
-9.3550568733
-8.9009998061
-2.7923422430
1.5255653576
1.9266546786
0.1987533063
0.2049317378
-0.0035752460
-0.0127954261
-0.0084567870
1.9836895702
10.8491141960
3.7058254596
-0.0118258299
1.6799529022
3.3288870663
3.0680885752
0.5020941363
0.0129887080
0.0062844892
0.0084731997
-6.9275542702
-1.8333212626
-2.6081452900
1.2994683975
-1.9981612738
-0.4114308224
-2.5991682533
1.4086872924
0.0042964589
0.0019683573
-0.0029284407
1.0362316115
-4.2955617711
0.9584458020
2.4509587586
-1.9899057236
4.2072135763
0.7464550694
-0.5143861644
0.0174558561
0.0033872389
-0.0023197392
-10.1295785400
-6.7219211685
-4.9070239957
-9.1895575290
3.1302380860
10.8961906860
-0.5632603843
3.8308656622
0.0087563873
-0.0094509238
-0.0065093441
1.6009108253
-1.4118991675
1.3528014484
2.9626221456
-11.2619786774
-4.1955628814
-1.8606765249
-6.4152067228
0.0080315257
0.0187677167
0.0104552073
-6.5175428350
12.2216765326
-1.6195804748
0.0756171559
0.6380835955
-2.3139109209
2.6973038350
6.4906567008
0.0152428387
-0.0119335686
-0.0000752023
-6.5253818285
-4.2749728811
0.2648863048
-0.5324194941
0.7926700659
-2.5171516971
-4.3283246541
1.6019097572
0.0013316845
-0.0069789266
0.0044222757
2.1823782037
-1.6362265512
6.3108214679
6.3469455668
-7.0751184276
-4.0866652879
1.4619683435
-1.2254049197
-0.0120122648
0.0142319557
0.0016599155
-8.1898393800
3.7483600142
3.7658700571
2.0563523716
-1.4816974553
-1.0872706569
-2.2523319523
4.4756057454
0.0190778233
-0.0043360486
-0.0043603841
15.2060337566
14.7430306109
3.0615311128
-0.9100501958
-9.8686982056
11.0292214163
0.5123152550
4.3926128700
-0.0129128574
0.0115913654
0.0150576756
5.0442373829
-13.4657712485
2.6711852105
-0.4461645232
-0.0087482002
-2.4771402923
-3.5480322779
-5.7675037247
-0.0175343768
0.0073815531
0.0015592795
9.9675156438
10.0324434541
-0.7319250154
2.4273903665
7.0287081059
1.3001341184
13.4164881707
-3.9222014922
-0.0093406538
0.0026814226
-0.0086011699
-10.4645655950
30.6752151902
21.2478827766
-15.9157961554
0.0349634922
-0.0130290416
0.0086396702
-1.1542616438
2.0443396830
-1.6524643531
1.0292564127
4.9723060997
1.4666784574
2.9353758715
1.0687566226
-0.0183901673
-0.0161711829
0.0034512383
0.5179686666
-0.5570577947
2.8023533615
0.4023075746
0.1669415319
2.1121110965
-3.0338142146
-1.5277367570
-0.0068060630
0.0031628515
-0.0008628711
-3.7960381969
2.0661340160
1.0624501146
-2.9798164404
-0.0386212254
2.2594526254
0.5732601841
-1.4728706520
0.0065164881
0.0015824395
0.0109930918
-0.6191170165
3.7771688382
-2.4310140461
0.9035975334
0.8703008640
1.1966560543
0.3939157099
0.0269143828
-0.0108194330
0.0020062830
0.0103329095
8.1897112247
-2.4049725014
1.5378641785
-9.1001722482
-0.5625338343
-0.7288394102
-5.4369312017
2.5087317281
0.0086323961
-0.0040642947
0.0002335681
-11.0307928507
-3.5489473377
-4.1183843046
-3.1059747586
-7.7644966768
4.3998888504
-2.6106801819
-0.4665271737
-0.0066144713
-0.0048826559
0.0033932951
-9.6791093545
-0.9104486973
4.6124008133
-3.1025575823
-3.5643956807
7.4183179614
-6.9311597443
-3.0943399903
-0.0048973122
-0.0085304404
0.0108535428
-14.5237489449
8.3839627299
-4.7797701254
2.8678024467
2.8205103288
-6.5246057812
1.1788875335
-9.7852781102
-0.0004598247
0.0055607679
0.0069356278
-3.4672941315
-7.4032097787
11.4439715701
5.0445911129
-1.0968614760
-3.4958279633
7.9901005419
-7.3976997415
-0.0061448413
0.0106804202
0.0046486161
9.5480697960
-10.9877821621
-2.9829921702
-1.6055232060
3.5570232756
-11.0893419367
-4.6826167360
4.8629293256
-0.0092298459
0.0035642883
-0.0063316814
11.3249782951
12.3493020006
-4.2900982911
-4.4190430070
-2.1370991375
-2.3668030572
-1.4528634792
-3.6739183071
0.0213558287
-0.0078761867
0.0030878507
-8.5516084845
-4.3576238917
3.9822369479
7.5148592481
2.9102114359
3.6900776195
2.6620637121
2.7055403574
-0.0046658606
0.0002986114
0.0071748422
5.3372081715
-4.1095627615
1.7904381765
0.0501145380
2.9293350250
-5.9634394582
-2.4655131518
0.9252388617
-0.0051557735
0.0108921039
-0.0089049941
-7.8737548522
-6.6768513105
-2.8725567218
-2.7687048218
2.3056044557
-3.4617556470
2.3141683662
2.9914903423
-0.0190736243
-0.0007958836
-0.0093276789
2.1048317677
8.7117593426
2.4431774876
-5.0214684599
5.1862846901
4.2720456558
2.8119657613
-5.8407847256
0.0103728599
-0.0060273915
-0.0013051182
-10.7054874820
-9.1941785425
-4.2086707769
-4.4989193465
-4.1776579101
-5.3796597737
6.7736672913
0.0759178797
-0.0159865518
-0.0115835794
0.0027084443
-0.0350261655
8.9788765532
4.5759566215
6.8522506572
5.9694956906
5.0499897847
-3.3095817322
-2.4173767131
0.0042170379
0.0131476401
0.0121480080
-0.4540593022
-9.8166353373
-9.2405048766
2.5298909737
0.4992997687
-9.2734461075
-2.8451158924
0.8278447128
0.0005231107
-0.0189469718
-0.0004243510
8.8199914742
-3.0740335462
1.1512997146
-2.7681065030
5.6301862253
-4.8897732596
0.4128062368
2.9105268422
0.0099849154
-0.0052189542
-0.0095744750
-0.6497616151
1.3035393225
-1.7746805597
-15.6765368335
6.5768061388
-3.6731298045
2.9420470724
-3.1512288123
0.0064775294
-0.0095570448
-0.0001919178
-4.5027960475
-2.1436024438
10.7649897956
1.6081049475
-8.6336207340
1.4617562452
4.7337975158
2.5188359318
0.0077162789
0.0046917190
0.0159919674
2.4673435628
7.6228542257
-3.2839993168
0.5932676581
-2.1680349316
-1.9787480663
-2.9711465266
-0.4811946266
0.0122289271
-0.0038170277
0.0056819081
-5.4711737534
-11.7028403902
0.0321889213
7.4259109948
-1.2662236433
-0.7008176383
-1.4631145515
2.4811042276
-0.0149205525
-0.0017858410
0.0001181808
13.6376994469
-7.7329329429
-7.4653316249
0.5690291654
10.3113527064
1.9776468508
0.6398634635
2.2457836335
-0.0171843415
0.0034319302
-0.0130710502
0.0513881480
9.3655292130
-3.5611762770
-7.5600697664
-4.7012455470
-4.5783162447
-1.1420206987
-3.1693248308
0.0195487628
-0.0025185218
-0.0059093381
-2.4823906308
-2.2879249861
8.7879414824
-0.1144573166
2.2959837794
2.4200576451
-1.3097360635
-1.6686444670
-0.0091412902
0.0087800499
0.0071180214
2.1594515210
-4.4465039163
-5.5408294674
-2.9833087313
4.3144255159
-0.4369250735
1.4255844696
-2.4261640142
-0.0054443963
-0.0058779818
0.0036990088
-4.1249849214
3.3522761582
10.7015275745
9.9854503085
-7.1311217936
-3.6737351998
-0.4599664257
2.4319729847
0.0030404749
0.0041896840
-0.0002583466
3.4338599419
-6.2897637095
4.0075957293
-0.3223545057
3.8496398114
0.2385457780
-2.8605426521
-5.9921870494
-0.0084361953
0.0098034018
-0.0097285221
3.2999491226
-5.0949115051
1.0869645241
-5.1535627015
-0.7179762013
4.6193440975
-0.5569261180
3.5095285670
-0.0030454546
0.0032139963
-0.0079089145
1.1345540303
-3.4663062552
4.4523653849
2.0950843764
1.5088096796
-6.1698318645
-1.6038826855
-6.7436648478
-0.0077127333
-0.0033088934
0.0035973528
1.2029804947
9.0163770088
2.2211794757
6.8518039755
3.4792288937
-2.7292946218
-1.2069197579
6.9100831760
-0.0060311406
-0.0022846657
0.0021791214
-1.1137373897
-11.1784257055
-4.2061984862
4.7140842368
2.0148524901
3.2269740203
-1.5133697212
-0.3291721928
-0.0061060145
-0.0003447345
-0.0089917463
1.7268128809
2.1580138845
-0.7053314770
-9.2047649030
2.1423408368
4.9252131500
2.7246869509
-0.1129686303
0.0099555123
-0.0065496932
-0.0160921306
-0.0327086920
6.5445710704
-0.3251027495
0.6819745202
-5.1489851539
-8.9006900548
-2.1803882455
-3.4002119730
-0.0000759055
0.0069597891
0.0131006120
-1.7090553182
-2.1462942186
-0.0274014192
-1.1403689946
6.8083692851
1.6171120222
0.8541464619
1.8914829934
-0.0079244674
-0.0058906536
-0.0105006926
-12.3668068104
-3.7723145964
-6.9456319901
-0.2642715455
2.1811534862
-3.5631948308
-4.6971414911
1.2231850927
0.0232756238
-0.0071295402
0.0071521136
1.5746868536
4.6321135610
3.0523961627
-1.8755290452
-8.4993568823
7.2051537649
1.6264451450
7.2644537933
0.0055788621
0.0033849904
-0.0061600019
16.3868170928
-7.7875023029
4.3822887877
-2.5233171023
-2.0474564721
5.3463066717
4.1107006898
-2.6065637343
-0.0191129527
0.0069755932
0.0083277353
36.5405103273
-6.9248775225
7.3726438112
7.2139678022
0.0008212332
-0.0004287452
0.0067974456
-1.4947503846
-3.3393148270
-1.8790615323
0.1485857574
-0.1958710213
0.9158064022
2.3006199144
1.9150508605
-0.0054582364
-0.0049843663
-0.0033819930
1.1981730239
-0.4708934564
1.3003862834
-1.8405409647
-3.7019324187
-0.6954564403
-2.4899860445
1.9152948063
0.0113412223
0.0069687626
0.0032119463
0.6906442215
-1.9702334379
0.5880968918
-0.8052244021
1.5103486419
1.6800134152
0.1725031332
1.7992861626
-0.0003228823
0.0001604481
0.0011131920
3.4549915212
1.4644449434
-0.3288983255
-1.5564506151
-1.3845188874
-0.1728295916
-1.5875021828
0.5445047584
0.0054710580
0.0072767866
0.0069870877
-1.9123866352
-3.4744214080
-0.7791564491
1.8211978897
-1.9476614981
-2.4409595227
0.4034162382
0.2192316706
-0.0056150345
0.0046349049
-0.0070029699
11.5670850042
-2.1195000817
6.6353222389
7.2369654119
-0.7694815153
3.0929175882
-0.3181828622
-4.6304965180
0.0140893147
0.0209013125
-0.0033711652
9.2554222061
-1.4740889098
13.7747761280
-5.8851238236
1.6012520854
-7.0079151465
3.3627502966
-2.1087159361
0.0137145896
0.0076822749
-0.0082400817
8.5028105425
3.9795125570
-15.7144977039
7.2587806011
-3.8435067456
-0.7059283948
-4.9658742969
3.7862208557
0.0053926420
-0.0002833597
0.0031105561
7.1029419283
0.9601359774
15.7525741819
-10.0600544651
-1.3323206355
-0.6510543743
-2.3806084226
3.5714783814
0.0024362476
0.0070012177
-0.0012716212
-18.2675276702
21.7166285215
-0.2753176616
3.1642919495
7.7684828109
7.6570227787
11.1920780732
-2.1247909229
-0.0000421331
-0.0012299174
0.0110624045
12.0601885722
-8.1391093362
-11.9627535730
0.6973617338
-1.9422465217
-4.9694116941
-7.3247571012
-0.3799489420
-0.0179008854
0.0014449735
0.0024267277
-13.7208179911
13.3789040847
15.3842280967
-4.4804662644
0.2419371480
-1.0878379080
5.7026170867
-10.8149795273
0.0091470919
-0.0055380596
0.0030861782
1.4899168505
-4.0057097518
-11.3398041211
0.7821810106
-6.6637542175
-4.7635495612
0.3758259822
6.4600585553
-0.0023070863
-0.0017605907
0.0108752517
12.8791774793
6.8721289674
-1.0672549376
-2.3264474265
-2.5911983695
-0.6764103490
-5.9972383523
2.6626208682
0.0087832797
0.0019894079
0.0006062458
-2.8047487390
-4.6675061477
-7.8096327902
-6.4939521326
3.6322397111
3.3719538283
-3.6127782817
-2.5856074326
-0.0111210922
-0.0183725030
0.0031844073
3.4567150713
3.5610820876
10.3831694318
-2.8139569542
4.4011090972
4.8838462304
-1.6716472686
0.9843797974
0.0002726958
-0.0048020772
0.0130137329
-12.6393338146
9.3523255642
-9.1401142209
3.2512198010
-7.2487317937
3.9334588467
4.6514346192
4.0223400739
0.0021519714
-0.0129487594
0.0082409444
0.9854609618
-11.5266386235
7.7313096347
0.1045222200
1.5791532212
-6.5183098791
-2.3637762545
2.6567811934
-0.0157398757
0.0050937592
-0.0025673334
-3.8037386235
3.7478492319
0.9421224817
-2.2240033656
1.7838297520
-0.6407934846
1.2712082663
-0.9030372800
-0.0043894918
-0.0139232882
-0.0026517267
2.7664668906
10.4291785569
-11.5866595118
-5.6666468359
5.1093755636
4.7258963325
-3.8914255921
-1.7514346613
0.0095680232
-0.0135204541
0.0049459798
-4.0587843108
8.9959779472
11.0751441449
4.3014256450
0.4711054538
2.9801115203
-1.3197439842
-3.8913413234
0.0009725851
0.0124796182
0.0155696062
3.7696468249
-12.1622810314
-12.3362620822
-1.4844809211
3.6643724582
-0.6435494513
-1.4270743558
7.1455445037
-0.0233053692
-0.0070188558
0.0017867596
-0.4245960732
3.4241971987
7.4134409806
0.5309468484
-2.1383507522
-1.7124228534
2.8776258467
-1.4866152336
0.0063125110
0.0033270170
-0.0022306010
2.0335108989
-7.3888860314
-9.4357794122
9.7973384265
0.8749560223
0.7322742746
0.6689544222
1.5830066536
-0.0043920220
-0.0164765925
-0.0052551350
-0.6497210251
-4.3944544329
7.9461488707
-6.8165347088
-2.4046516467
-6.3514495809
3.7718841075
-2.5265732235
-0.0080055557
0.0082668913
-0.0150280320
3.1392281162
7.4371144113
-1.3824856399
8.0420722025
-0.6855036550
-1.0911991965
0.0812187007
3.9936104821
0.0109240454
-0.0094734563
-0.0016445824
-2.7294525150
-5.2232783124
-0.7711011931
4.2917669207
8.1187839678
2.8597422996
-1.0869899878
2.1237409205
-0.0019171800
-0.0140835604
-0.0065826514
-3.5773605149
-4.8352771944
-5.2883747596
-0.8412694894
0.2008206210
-4.5744331233
4.5704697100
-2.9029217293
-0.0010402580
-0.0076624953
-0.0103387298
4.6069082419
5.5063427424
-0.5453494153
-11.2687882906
-1.3603145510
7.7973569768
-1.3931343658
0.9530293883
0.0163963890
0.0054967388
-0.0047414110
1.5709290270
-4.7141791722
-1.7624074577
9.2700416321
-2.6672149086
-2.4641358316
-1.4993465104
-6.7472212049
-0.0126694517
0.0003202315
0.0133332655
-0.2347882848
9.6091069739
-2.6180355195
-1.7714858179
3.2862780014
1.4831850868
5.4517021003
1.4022340583
-0.0004273717
-0.0134082613
-0.0030429176
-2.9914908294
-2.8513034112
7.4770425539
1.4148359226
-2.5296863054
3.1735831993
-1.5855311232
-0.0225056040
-0.0122148022
0.0029767819
0.0053892497
5.8504088489
-4.9606604621
1.5486771734
-0.2049811840
5.5231176492
-2.6321573349
4.7303477738
-1.3920156451
-0.0186146466
-0.0124320599
-0.0088546038
0.6317332674
11.2200839102
2.6332259109
-0.1285193651
4.8616911168
-0.3928852206
3.4924688238
-0.2392400079
0.0088372757
-0.0081854568
0.0060326350
-0.0617549658
0.6728174313
-2.9419583686
-2.6595874257
0.4085479244
-1.5625974115
-2.6042751636
3.6703183050
-0.0027775892
-0.0057745511
0.0024503363
1.2020994224
-1.1740679461
7.0892000846
1.6577840140
-9.3186246518
-2.6015735605
-1.6914239281
1.8290931818
-0.0163896075
0.0088007076
0.0041104955
2.1540802638
1.8562954924
0.9279173924
3.8065871280
6.5847468321
0.7712927784
3.5450603815
-3.6725974922
-0.0012910526
-0.0059936480
-0.0056916922
4.4250629355
-5.9742465504
-3.4374649403
-0.0054394841
8.2685071344
-6.9148527261
-2.8560315533
-2.8754405017
-0.0089270462
-0.0085774020
-0.0058419371
-2.9670504651
6.3700685703
1.5170846503
3.3319138207
2.4845862449
-0.1834884293
-3.9998470462
2.8277075497
0.0120804793
0.0013798101
0.0012669005
14.5222568566
9.4337921961
-1.2124622411
1.1170289945
0.0130351452
-0.0023487739
0.0118508118
-0.3400102702
1.4593025065
2.3047697227
0.9705411782
3.5125255141
2.4474590880
-0.0788635639
-1.5932533126
-0.0262514488
-0.0033936072
0.0063081802
2.9673806148
1.4332246367
1.3223627744
-0.0954105974
-2.0373445993
-2.7183270686
-3.3594327725
0.5901861058
-0.0035658481
0.0128759889
-0.0014411648
-4.7385345280
-2.4585323123
-0.9224755013
1.5408922754
-0.0332906602
-0.0452583576
0.8307852056
-0.5559759003
0.0069349417
-0.0055914643
-0.0062927618
-2.6613029187
-2.8871676850
1.8522051841
0.6074609405
-2.6814662875
1.7312406458
0.3813554488
0.0193390401
0.0035513134
-0.0008892749
-0.0074201634
-2.2948471993
2.2824173829
1.8789983904
1.8788464302
1.2804865635
-2.0881270953
-2.4873052882
1.0698580690
-0.0100460818
-0.0006563807
0.0019930776
-1.9359343022
-5.2438760261
-0.6981891125
-1.6390803712
2.9966990966
-0.2040728732
4.2958551705
0.8862033981
-0.0112518234
0.0006704311
-0.0147583928
-9.6774128438
-0.9896069082
1.3463715027
-1.2914438526
-1.3181518991
-0.5028376369
-1.5498006439
3.7644803288
-0.0118087770
-0.0016130087
0.0032274719
-7.3533112444
8.4818113658
-5.5568160194
6.9270623020
3.8774997590
6.1780463663
-0.1852851752
-2.6761051010
0.0049663998
-0.0008657747
0.0072222464
10.2305097781
-2.2264934130
15.3927765798
5.8997301489
0.0015743862
-10.0305884228
-0.2313369518
-1.8998580068
0.0024077661
0.0174580414
-0.0048796875
0.4368561323
4.5353563738
-6.6495497977
2.9184169684
-15.0441781323
-12.0197059007
4.5184638734
-5.4530539387
0.0028152262
-0.0165239067
-0.0092686283
-0.4054879142
-11.3252525680
-0.9840651838
-3.0760883362
9.2406536980
-4.3306776359
-6.4735637915
4.3959567735
-0.0087261923
0.0011667832
-0.0043506631
-5.6545332925
2.9220670011
8.7835190550
-0.6997009397
-5.2794557684
5.0750334549
-2.2890295245
1.7403418228
0.0069189648
-0.0033203994
-0.0051641222
4.3367324327
6.6655573852
-0.1928695262
5.3721065470
-2.7845508186
1.2530883478
3.5203096603
-3.5036962673
-0.0043380022
0.0071409602
0.0019891501
-9.8845272112
2.8747048166
6.7657162445
-1.1342669058
-3.0955443492
-0.0370387666
3.6596815603
-5.5475321155
0.0078647013
0.0058538547
-0.0054272747
7.2091861235
-12.4562197298
-7.8841321148
-5.1367650408
-1.3706497155
1.1689206588
-11.0702564889
-3.4606263741
0.0117407872
-0.0050355052
0.0003668685
11.3164410366
-1.2857637099
3.9192682484
-7.8992532495
-0.6898819418
3.7590068459
0.8034060950
3.2759612585
0.0037381710
0.0071646091
0.0033764930
-8.2205147268
5.0647478940
10.7312790503
3.9374703000
-6.7522653471
-9.2514593988
-0.0463837047
2.1821891367
0.0026094529
-0.0046554417
0.0134767953
5.7214985955
-3.1560391388
-19.3075848108
-3.2975707312
0.8834928151
7.7946816014
-1.9629911996
-2.9777674428
-0.0020029458
-0.0032936936
0.0000662098
2.7897804911
-15.7783865135
-2.9190094651
6.0940921340
-3.2421317718
-1.1575405883
-1.7945020962
-0.6494700018
-0.0081518992
-0.0046701505
-0.0026035466
10.0759238065
5.6327946257
9.1989319948
-8.7969161900
5.8325573850
3.5153275568
7.3013197995
0.0265127131
0.0088569536
0.0012757946
-0.0082880827
-5.5174035765
-10.6560474526
-6.0162380814
9.3901193767
-3.6028660826
2.2404450965
-7.2435402534
7.3556335271
-0.0019431345
-0.0053362575
0.0054016283
-5.8037381385
2.9440883992
1.8366702212
-6.7566616805
-1.3205276972
-5.1923881524
7.9420512446
-2.8078291569
0.0057298956
0.0011480439
-0.0081674616
16.4246824708
-6.1297068448
-6.9234940725
11.0203233171
-3.3450510276
1.1228466222
-2.9545095551
-2.8845510815
0.0032125122
0.0084022825
-0.0018211517
-3.3755884652
-4.6940920878
2.4538562246
-4.2047693051
4.3586672520
0.5770826224
-7.2359161773
-0.1179715859
0.0085518163
0.0011087563
-0.0103518003
-2.7085247418
3.4923728497
15.3211574795
-7.6779531874
0.5534945469
8.3861060319
3.1396173472
-1.7562922012
0.0043486790
0.0134317244
-0.0032370328
9.0194908547
-5.5338982690
-14.3944691934
0.6321552436
4.1963981733
-2.3767245226
-2.3955799443
-1.2021728783
-0.0048495504
-0.0093815943
0.0063918479
-0.9490180257
3.5251997193
-3.0843899425
1.7603358078
-2.8453730257
-2.2657221973
1.6175852156
5.9062615849
0.0033597852
-0.0120380064
-0.0027244156
-8.7239011408
-1.8214921575
17.0387836933
3.6751283595
-1.9755687462
-1.7763714941
2.2698311720
-1.6092414390
-0.0113508817
0.0065696402
-0.0039019214
0.5375526216
-5.6228414637
-0.2692512400
-6.9557216547
-0.3369187612
0.0264045371
0.6113408245
-4.8943222871
-0.0106578482
-0.0015549106
-0.0089315065
11.0507050773
14.4847972056
-12.4457234834
1.7794913636
9.2304338801
-0.9720320568
-0.8420951314
9.1805000962
0.0065490013
-0.0039016629
0.0151976739
-6.1161655717
-14.9303229508
4.4018408508
10.8324740779
-1.6273431560
-4.5908175698
-2.3339263999
0.0946840607
0.0000782157
0.0024789383
-0.0000740683
-10.4444182932
-5.9883782154
-1.9517073960
-0.0192015109
-2.1210710023
3.5980592866
4.1255168500
-4.4798330457
0.0092774042
-0.0108413718
-0.0190623197
-2.1708337349
-3.1566896539
-2.6215907510
-1.4714048109
0.4201531444
4.0258019349
-1.9705950026
2.9644462463
0.0168615654
0.0035926267
-0.0031281547
-2.3439161220
-10.1457678454
-2.7336339112
3.0022764634
-4.8215970927
-0.4635098214
2.3677306721
-0.8636805930
0.0125458419
-0.0072244472
-0.0125752858
5.4519692658
-4.7773487952
0.9180651399
-1.1234689774
7.3982378293
6.8988298273
1.6081301317
-4.2929244966
-0.0167901289
-0.0081488067
-0.0083266813
-5.6220146108
-3.3870063306
-2.8737736914
-1.4457007827
5.0958400948
1.1867894503
2.2807902126
2.4682813694
-0.0027989133
-0.0111800692
-0.0063246824
0.5552256697
0.9856761195
-0.8638972367
10.4390916688
-2.5853386062
-10.1199881267
-4.1636409214
1.9706449270
0.0006179845
-0.0029256559
-0.0055655747
-4.9552668206
-0.8782753017
-0.7498786829
-6.9482418613
-4.4963555258
2.6339965107
1.9834065146
-0.8104066069
0.0180278737
0.0048674116
-0.0146046435
4.4655717280
0.1743501552
-0.8617207508
-4.4439402067
-2.7903420128
-5.8743385171
5.9242879401
-1.5652361319
-0.0070589686
0.0041550036
0.0131381097
5.3190186670
-20.0427617293
27.7644277570
10.9603016103
0.0168867154
-0.0178524398
0.0031338659
2.6562879384
5.6483179326
-2.9465249966
2.7067996440
3.1882238435
-1.7106604754
-1.2160201673
-1.9084603177
-0.0153839378
-0.0038435759
0.0169371088
3.4397195108
-2.7839971731
-1.4548112060
1.1566081421
-2.8306930745
2.2314981669
1.6927621130
-1.3655561597
0.0065294662
0.0071851940
-0.0145479064
1.1779622507
1.7884089032
1.6665940379
2.3778714429
-0.2015729839
-2.3024829932
-2.5252651325
0.5815592582
-0.0148344150
-0.0000471120
0.0026805208
3.5332919189
-3.9651522595
-1.3767632186
-0.6673006010
-2.7856123494
0.5461693368
1.5475600373
-1.4891266879
0.0085476881
0.0149010516
-0.0067695083
3.6317783507
1.1487608058
0.7879544718
-0.3142790429
-3.7130330425
1.7080822056
-0.7971424311
0.5866439470
-0.0100803954
0.0053112917
0.0005933419
-2.8924858564
3.0392670070
-2.7356802160
-4.6150132461
-2.5501704039
-0.3686382198
0.6209632828
-0.5078920555
0.0186821944
-0.0101506532
0.0127477350
-2.5697788551
2.4973243321
2.1949997619
-0.3215040836
0.5897487839
3.9996378431
1.3539094053
0.9327943300
-0.0038850353
-0.0018421104
0.0124316448
4.3786134659
2.4038809618
-6.1112694278
-8.8534745961
6.5661123574
-0.1481892308
2.7838573798
2.8186675602
-0.0108837673
-0.0076442521
0.0012418573
2.5532525546
2.1620692294
-10.3814548002
-2.6636550529
7.0147145476
4.6402672421
-4.6488345427
0.1107079726
-0.0106952669
0.0103484196
0.0125550128
-1.1846858823
-5.6296019563
17.1081325919
15.6826171010
8.4088648670
4.5905699573
1.2058159160
9.7908372024
-0.0057195286
-0.0017761276
0.0104206871
6.0437396161
7.7921368998
-13.3582433986
-1.5434982032
5.5585330967
-8.5670213088
-4.4182653566
-3.0161932331
-0.0010479868
0.0007121119
-0.0195648888
-16.3405194064
-0.7423001101
11.3559299021
0.7700609787
2.9919728314
-4.7463753637
12.6781909197
3.0501929725
0.0036352887
0.0025759390
-0.0065951312
11.1627791791
-11.9864641676
2.2880406768
-9.9139934435
5.0789684504
-12.4482401777
-3.1974795489
2.2279242276
-0.0066653797
0.0117748424
-0.0126603810
-10.6458492507
11.0103352959
2.4641647054
1.6643763229
5.7566161859
1.4837115918
2.2013666743
-5.5200555347
0.0000812260
-0.0058846875
0.0052609864
-6.8745075459
-11.4534526587
-9.8908690771
2.3777747397
-6.0901955186
-2.9588462710
8.2232305684
6.7937906009
-0.0147476127
0.0074307315
-0.0070501732
26.0847982526
17.2741733358
-1.5127272889
-16.5565167681
5.7187204598
4.1713220133
-0.6712249048
-8.8969715375
0.0217056834
0.0178745930
-0.0005085038
-2.5331698323
1.2884099631
5.1434325562
14.6068377950
-8.7167007917
7.9427052081
1.7575116482
-1.9206146195
0.0044190343
0.0158112996
0.0174831029
17.7064371834
-9.7688368020
-7.1800006458
2.4193894013
1.9874457438
-6.2717454398
-3.6099363556
5.9776156618
0.0020947300
0.0012540835
-0.0032777429
-9.7056441867
8.4164173067
6.9787891168
-6.7882266264
-0.0690290795
-0.2349359414
-7.3278619956
-4.0002397554
0.0160903915
0.0094477917
-0.0018321286
13.0674707399
-2.0820418554
-0.9300961883
5.2993039734
-2.5183286645
-3.6593777501
10.8311062128
2.2895031809
-0.0082255905
-0.0073417221
0.0015260256
-2.3386034153
-4.0910829820
-5.1964911312
6.5323227858
5.6486967070
-12.8951852275
-1.6837438342
-0.9838062500
-0.0032758247
0.0031603555
-0.0015526565
4.6046611175
-17.0649006410
8.0456531367
-10.2825395113
-9.4264243727
5.1050075877
-3.9177117653
-6.1810862546
0.0015017652
0.0123707773
-0.0200931384
-1.8857872627
8.4625349423
-4.4798571425
-6.2405641448
7.0916253429
2.4011295347
-6.0696164125
3.3935007529
0.0011192461
-0.0026796886
0.0060957505
0.1105457211
-3.8112480950
-4.1146718162
7.2816906180
-2.3865574270
-8.3162712770
7.6624910898
3.5054903208
-0.0136545017
-0.0028717312
0.0018877753
9.5473077031
7.5698381560
3.9899429160
-4.0694996987
-0.6832869014
0.4461030448
0.1855571981
1.3730386959
0.0157028059
0.0039772315
-0.0012650433
0.8649291419
-1.4357054726
0.6869936187
-4.9969012898
1.8665349191
-3.5299672481
0.0544577922
-3.4179924455
-0.0048764135
-0.0023539752
0.0048389768
-13.5161150636
-11.8271421765
-7.1313004789
9.8896527742
-0.4785946460
1.8984182263
-6.8675141243
5.7587882974
-0.0032759608
0.0006647441
0.0058686667
7.5681792976
5.6774191643
0.6769251658
-12.8839965768
1.7531599869
-0.5391355498
3.8373646572
-4.4069022360
0.0097292610
0.0044617384
-0.0109758340
-0.5324778979
4.2403287572
6.6457365926
0.2800201546
-5.2375041353
3.9235130318
0.3368468517
2.8516641928
0.0104001510
0.0143038785
0.0112968077
7.9884607928
-0.1325426762
-6.4537343769
-0.2721895700
0.5028559920
-1.6129599438
-6.0615317238
-3.3930695810
0.0086047355
0.0081278382
0.0044761614
0.4970918628
3.8712536104
8.2015462610
-1.2185127777
-8.0620547496
-3.3523503168
5.1899602512
-2.9960746526
-0.0086679688
0.0064149534
-0.0007510203
-6.7555614626
2.6593205814
0.4302578219
-4.0109405401
4.5690305742
4.9858504096
-1.0486443132
5.3939845372
0.0079278468
-0.0112459445
0.0086238794
6.2320126322
-1.7227351398
-1.0754694682
4.5796375829
6.3152597233
0.0042820400
3.5853313188
2.3005904614
-0.0085933856
-0.0106263329
0.0045324220
-8.6258445178
-3.4206294031
0.3396759394
-1.0640887247
-3.6885525480
-2.0402025921
-0.6927509298
-2.1550313201
-0.0096147255
0.0048496180
-0.0042283907
-5.4304665044
13.1774710674
-3.5738924881
1.2029034727
2.4564859568
1.3228364816
-1.3058919850
2.1285357937
0.0224123515
-0.0078416755
0.0046477469
4.7876494525
-4.8996658861
-1.1339228754
-1.4400427278
-1.0997365362
-0.4534624734
0.3162527303
-1.7895311605
-0.0063337691
0.0097274035
0.0111759395
-4.6020027670
-0.5904430987
2.4795604227
-1.6592906038
1.8811766746
-0.6638315980
-1.6096878616
-1.7163533555
-0.0049444755
-0.0065198270
-0.0098498961
-0.1527180974
13.7322530851
0.0054273895
3.1283938712
1.3844908206
6.9726045070
3.7384073100
2.1136816572
0.0052839525
-0.0111963593
0.0045073544
0.1843494327
-1.3777654005
10.2567353685
1.9718239796
6.9883449572
10.1023183605
-2.2765073152
1.9059498230
-0.0090280222
0.0031203501
-0.0027162312
4.3836344290
3.8893468628
-4.8363442558
-1.2199865299
0.0178000120
0.0042819665
0.0100010688
-1.4839567950
4.4475342183
3.0749678397
1.7046291068
0.0628990373
3.5036758452
-1.7516806636
-0.7710986661
-0.0046454344
-0.0055690142
0.0145154411
1.7843735843
-4.8338355894
-1.5974559795
5.2835052786
0.4253438049
-2.5060616572
-1.7773900697
2.1113655236
-0.0107665074
0.0054067321
-0.0134026222
3.1125472963
0.0925470643
1.6612812101
-0.0937883211
-5.3741676800
-3.2638454625
-1.8871787852
2.1787059639
0.0178939307
0.0159253835
-0.0109350250
0.4916768887
-0.5096204964
0.9436364108
2.0116190509
1.3489865930
-2.0056152436
-0.2775431089
2.1231015450
-0.0076546816
0.0031583647
-0.0036837923
3.2935620456
-2.7148345981
1.8484764795
3.3662719502
-1.6135893707
0.6698790765
-0.3413919551
-1.0140824277
-0.0058549245
0.0202437477
-0.0095140239
2.2145353519
-4.8940857464
2.3723122351
4.4111960348
-1.2490559098
2.8267295306
0.4057930029
-1.3144317539
0.0004050038
0.0126051277
-0.0118154286
-0.6097887073
-3.6772885722
-1.3128994764
4.8653759631
0.4363371698
-0.4575128572
-1.0478072888
-0.0508293085
0.0020906021
-0.0031870114
-0.0103371613
0.2824543470
-1.6030945937
0.7340448383
-2.2758504696
2.5809730082
0.3201494136
-0.3774319163
-1.3225428474
0.0164779606
-0.0143364023
-0.0129944403
-7.2882233159
-6.1936612887
-1.7866474309
-0.3166786210
-2.2969814947
1.3611913037
-2.2418550119
2.0758893345
-0.0007870693
-0.0117793835
0.0019581467
9.6667075227
7.4763299322
6.9206591597
-7.6271917937
-0.0602518506
3.3437446625
-0.0261111583
3.4653998275
0.0100254515
0.0021101130
-0.0002057927
-11.2587233391
-3.9434282578
-5.8484502412
7.8332603041
1.8104958407
5.9907320497
-0.6259258833
0.7768722241
-0.0075533386
-0.0108488949
0.0066905808
3.5832567677
-0.7618665650
1.9871677125
-0.8302953681
1.4005174829
-2.0145411672
1.7320817433
5.7774481855
-0.0059567409
-0.0026706231
-0.0065267877
-5.4025795201
-3.3507260948
-17.1798542500
8.8947489413
-3.8341415748
4.7325362212
1.1031977062
-3.7755954653
-0.0199658035
-0.0123900359
-0.0046336242
1.7113785252
-11.5415599283
6.0484545534
2.3757462604
11.1468844973
8.8368383431
4.7386175705
6.6976149345
0.0005917723
-0.0058839606
-0.0135926172
-2.4645873575
6.3257668755
5.9144551164
5.5528461503
3.7796221261
-14.1882070542
0.0515052415
3.9165111157
0.0078772136
-0.0025785676
-0.0059127179
4.6122148821
-0.9703586392
-2.0106591889
1.4126093275
-3.3898675381
-4.3900516122
-2.7260680350
-1.2812513859
0.0050303739
0.0059215724
-0.0169225470
-11.3977214901
-0.5854931921
5.2561181464
-14.4968163385
-1.9805410191
-1.4828383634
-3.6825393448
-12.0393044087
-0.0020141412
0.0121246562
-0.0088511208
9.5949502435
-3.5180271552
-12.4909019136
-3.3585979816
-1.2559040819
-0.0208429115
3.6984857590
0.9565422698
-0.0172816905
-0.0026113163
0.0068447285
-5.9333666582
-7.2751567275
-2.9419986998
8.7032353928
4.8960908070
-1.9460935824
-2.9582064204
2.7255750717
-0.0045835327
0.0055404587
0.0041461046
15.6670597951
8.6735353226
6.9982268216
-19.4140298566
7.4428309351
-1.3551819084
-3.5334648654
-4.5059284784
0.0148617938
0.0003404461
-0.0004309165
-6.3039929123
-3.9416613702
1.8345749839
9.1238762958
-6.9634873764
9.1233330103
0.4851772800
4.9448145274
-0.0178495482
0.0020402841
0.0075132325
-5.3278245117
8.4405457016
-4.1926942582
2.5122957822
10.5749622652
-8.2150895432
4.3720354825
-0.6167515794
-0.0043044092
-0.0067911855
0.0087897374
-3.3235514709
-7.9915607498
7.2585654282
-7.6591778874
-10.6566211625
1.7014070976
4.0179769689
-4.2199867344
0.0044167915
0.0123668616
-0.0050176473
4.3537737399
-1.6861463406
-1.0507664322
2.2503659371
-2.7963570418
8.6512890888
-2.6796464885
4.2788089607
0.0049368197
0.0041264320
0.0063553843
5.9010032171
-5.1975299100
9.8659810547
2.3608297682
5.5172902610
-7.8143412009
7.3948800790
-4.7892891213
-0.0107976441
-0.0038723390
-0.0011402644
-13.8020516893
-5.3179693712
-15.9237305401
-6.2508299992
-7.2832248313
2.5380465337
-6.8233311124
4.1704463805
0.0010604021
-0.0023666696
-0.0091882793
18.5375187763
1.4423502087
10.5783858693
-1.8245866842
4.3792267158
-3.7898967638
8.7585236653
-12.3047352860
-0.0108518672
0.0056867953
0.0022031446
-7.0814116889
14.3022163171
-1.3252686781
6.1329187207
5.0509447344
5.7616977710
-2.4660586402
9.4644853102
0.0218983620
-0.0121851957
0.0096445025
-9.6986441541
-1.9984164464
-8.0939455508
-0.2703123250
-4.9669053973
-4.1121988901
-7.7481673144
-0.2570743970
0.0053626323
0.0063807339
-0.0008589667
16.2373686712
-3.6378372675
5.1200489301
4.2620804575
-5.7182798576
-2.0080992905
6.2053899779
5.6434579662
-0.0174508217
0.0129364546
-0.0058089645
-9.4200500378
-8.4399718768
-2.8415534860
-6.3262885366
4.2350580912
3.1286295446
-9.4873465261
-0.7268087962
0.0038263975
0.0050455564
-0.0036203573
2.0545603837
-9.8329935160
-3.2478199575
-4.3647030982
-5.6133399628
-1.6561716795
1.9811828723
-7.7121536638
-0.0107945121
0.0045204869
-0.0062706018
11.3364544971
12.7398302651
4.6297149664
1.3637091058
1.5407712291
-1.7749170345
2.7556461563
2.9972076040
-0.0000052348
0.0015612845
0.0083865452
-6.2299750752
1.3389592556
1.3246979051
1.5170434903
-0.3017476213
0.9736987021
-0.4172530365
-2.5491174272
-0.0137751167
0.0040487132
0.0032987206
2.0114358789
1.5574475937
-0.0777491542
2.5877286279
-7.1460892455
2.2700591349
-0.9478636353
6.8237509868
0.0110381327
0.0118439749
0.0023736437
-3.2238511767
-0.6398767874
2.4637581194
5.0046927086
3.1887218324
0.5786461435
-2.8590549455
2.4484871919
-0.0009446205
-0.0070472465
-0.0086570445
-1.3776471371
-1.2614042714
3.0640977709
0.4051753591
2.1879748150
5.5620956574
2.8511172462
2.8794236615
-0.0104595839
-0.0051437170
-0.0124795845
1.3060991901
1.8372209516
-4.3132066165
-4.4174258689
4.8064972007
-3.6401261495
1.8769201298
2.8009448365
0.0037418579
-0.0094810078
0.0162292999
11.9337438228
-9.3395936441
3.0654164058
-6.1402955827
-9.7924811552
0.5654663454
4.3536416718
-4.7002444322
-0.0052037487
0.0107099638
0.0025911773
25.6804754432
4.2678864531
6.9773037334
-19.2416602775
0.0034233447
-0.0087829457
0.0084925736
0.3632175434
-1.1409174447
1.6530218910
1.1212284165
0.9887386594
-0.5989867842
-1.2051752215
1.4629017439
-0.0136672383
0.0013642119
0.0028274552
-0.2309057917
-0.5180066733
1.8438763131
-1.1015592928
-0.5296436006
-0.4220255646
-0.1745570711
2.4053767748
0.0047685081
0.0061145551
-0.0073843510
3.7124357047
-2.9809529730
0.0864450324
2.2604994009
-0.0051778797
1.2334028811
-2.3795982481
0.9930174124
-0.0218356444
0.0148534305
-0.0091738724
-1.4926210888
3.0128541146
-0.4033220699
-1.0788952844
-2.2812837742
-2.1707006813
-0.5619246361
1.0698193017
0.0151878759
-0.0001629020
0.0024152063
-2.4874988223
-5.2963194324
1.8956294192
3.1484722192
1.7293714140
1.2539318514
-0.0929769597
0.2204704177
0.0011591776
-0.0077582761
-0.0117925486
-1.9659922180
-2.4923800219
-0.9085804069
-1.3713808707
-2.4440062128
-1.2764365216
0.2626414877
2.4172617959
0.0131736936
-0.0034648787
-0.0023397318
1.0399045343
0.4583602874
1.3115873986
3.6300677614
1.1197156347
0.8255164353
-1.4009199243
-0.4843177695
-0.0116799597
0.0026712264
-0.0016227042
0.0106545165
-3.3913800590
-0.6392232589
-0.5442025297
0.6904511260
0.7457251053
-1.1218770961
-0.3093344013
0.0083849165
-0.0006365972
-0.0106539489
-2.1682004609
-0.0194769686
-0.0915123600
3.7035329852
3.5706347590
0.7107866874
1.2018816776
1.6563611053
-0.0208061885
-0.0024802475
0.0013335839
7.3242483194
1.5349729421
8.2932863883
7.6137460271
-0.2696494506
-2.3654309997
0.5182050014
1.3724459798
0.0047409484
0.0139119414
-0.0095955817
0.3436408092
-5.6450016380
-5.6598446783
-6.7619213357
-3.1817113189
-4.0148949077
0.2137956744
0.1379407393
0.0074671558
-0.0047611172
-0.0216455605
13.5942237704
5.8509264893
-5.8055779086
9.0682728981
2.6670864579
1.6663656659
-2.4834569627
-0.3268448236
0.0109141149
-0.0055936786
0.0085709679
4.7233912051
0.3454253609
20.3689930551
-2.1406586154
2.2570450678
1.2115158646
-1.4628124412
-6.6704210205
0.0184643558
0.0065055221
-0.0073706550
1.6637602795
-3.7985244463
6.7395086257
-13.7221502914
5.4082889767
3.7166236829
3.0655589342
1.8845612431
-0.0002805761
-0.0171439432
0.0017452716
-13.2732221731
-20.3018012523
-9.8087449732
24.8548530966
-17.6961055930
-2.5118503982
4.7769543656
10.8964561999
-0.0180594760
-0.0049431809
0.0008351185
13.5461432443
-6.8717116931
-10.5753208277
-14.3150223190
14.0154641081
2.2148186714
-6.6717496658
-11.2248489457
-0.0046321448
0.0069202647
-0.0218704061
-13.4330920123
-2.8071490606
1.9325916386
-7.3444655972
-1.8100224610
-2.1614646857
-1.3399613243
-0.5085170637
-0.0022018955
0.0003241667
-0.0046635649
-1.6021336698
6.7237241935
0.9515966319
0.8960235462
9.4091471369
-3.1084111090
-4.0384820921
-0.7388403431
0.0074666214
-0.0007356657
0.0118300980
16.9918124989
-11.8358742448
9.6292392618
-4.5044328254
-0.5799732520
-0.3968041207
1.6553333472
-2.4738839635
-0.0152434488
0.0025346677
-0.0017194194
-20.4303484414
20.6595249656
-11.2688367216
2.7335547364
-0.0903213144
0.0108543966
-1.9543854252
-0.6731451989
0.0141361586
-0.0123923567
0.0087276495
15.0044667149
-10.8205088152
-3.9535988172
-4.4357204031
3.2466033960
-0.2358164713
7.6333168310
3.4143807101
0.0009399146
0.0039704034
0.0087597160
9.8374682641
-1.6057030784
3.2285586508
9.7340114502
-10.0886402604
3.8389400367
2.4842668732
-2.8637994167
0.0070925846
0.0080325755
-0.0030282291
4.5530548616
7.5737389496
0.2589905696
-10.9922299109
6.9750716036
4.7490677790
-7.4915342154
-2.5607685354
0.0062708619
0.0048825327
0.0040118334
-4.2500729158
-6.4473862376
-9.4023110808
-3.9362164068
1.8705304743
-5.4116661865
-2.7355000075
-1.0611428147
-0.0043435916
-0.0083014908
0.0095375121
-0.1284044497
1.2212867164
15.7497471759
0.5135303317
1.8624886650
-0.2406584281
-2.9882878342
5.2036022537
-0.0008491597
0.0043671548
0.0058908039
0.8596856959
-9.2674274750
1.6863147229
18.5885775139
1.7035493649
-4.5482552823
9.0228858045
3.7111856112
-0.0151940350
-0.0071996639
0.0028141265
-19.0013618797
-2.6519665977
1.7913639011
-18.5300769840
-6.3429408180
1.3993262734
-8.3687071081
0.1546340145
0.0119810482
-0.0098401712
-0.0214557079
14.5504281942
17.8848527274
-6.0208591471
8.6274540002
9.5003614439
-0.8096212570
4.8446250662
2.5545211336
-0.0005054598
-0.0039900273
0.0105131338
1.1075218158
-13.4747949845
1.5491702466
-3.2476373475
-4.8184258758
0.0170833529
5.9317793474
-4.1112518606
-0.0214739264
0.0019288846
-0.0063810098
-15.3625494012
-0.8161863229
6.1732709843
-1.2263293329
2.0761749155
-8.6844512398
-0.8461275785
1.7595901302
0.0003582103
-0.0090154515
0.0011776758
1.2902883423
11.9252088823
-11.3382566164
-0.0033989189
-4.0455297131
1.7703704069
-3.8535649778
-2.4097144409
0.0114810892
0.0060291086
-0.0023863207
3.6171430123
-4.2452440218
-3.9996393268
6.6279708889
2.0838956646
0.1434242566
-6.0217803836
0.9149007064
0.0007073455
0.0065481198
0.0062072153
-2.2782471138
0.1926719788
7.9767382716
3.9017434346
-2.8790741656
-0.0244276421
2.8165373655
4.3983626665
0.0043666328
0.0033672696
-0.0059120527
-3.8659949358
-6.6880779274
-2.3404402720
0.9127392372
1.2230512929
-1.1972442048
-1.3497298709
-0.2327514355
-0.0011740735
-0.0068098164
-0.0129195274
2.7040176272
-2.9131603670
3.1124449221
2.2033338642
-4.4101687655
2.5100994188
-0.7926479451
-1.3297904267
-0.0055467980
0.0161553622
-0.0049267628
-1.4382711184
-8.5968260827
-1.3120913970
-0.4278432528
3.7146298585
-0.2130509243
0.5562168997
1.3624016992
-0.0088251510
-0.0094639280
-0.0180919096
-0.8608741244
-2.8958009833
-1.5312204162
1.8360221941
-0.8790760076
-3.6214861749
0.9956487806
-3.8244094216
0.0056050003
0.0035375008
-0.0050465804
-6.9269977490
8.0595629778
0.7402106198
-0.9227033633
3.3971656193
5.1224719481
-1.0730516950
0.8661159393
0.0263908449
-0.0064582500
-0.0010303602
-1.5111173722
1.2198900513
1.1784681508
9.5919971826
9.8259485262
0.0452081145
0.1420961570
-0.7439536682
-0.0018156696
-0.0108313560
-0.0053841770
-1.7400202170
10.1889147476
-2.8969110210
10.4061565656
0.0146799276
-0.0012573780
-0.0031225566
0.9802208598
4.1979039875
-1.7362811178
-3.6439018494
0.8579102355
2.0168960139
-0.0351956609
-0.7868209901
-0.0048830000
-0.0005009803
0.0135301063
3.0566707490
3.3048542801
-3.7061040754
-2.3004840409
-1.0000221558
1.5566963362
0.7646416813
-1.5194222594
-0.0000865772
0.0026660731
0.0118968408
2.0496330723
-2.4574123023
0.9875050958
-2.5917883310
1.6132615164
1.5534222170
-0.3086620324
-0.7410267604
0.0011385317
0.0000396862
-0.0004816298
0.7072921811
3.1014923826
0.2060516892
1.7335183631
-0.5587487227
1.1599995964
0.4875160059
-0.3846252954
-0.0198041383
0.0069785721
0.0046035296
2.2601607106
-2.3276214042
0.7471135777
-1.1212452822
-2.4679639149
1.0461096089
-2.3572604150
0.8738509467
0.0180423455
0.0053211614
0.0005715370
2.5761732399
-1.3757937064
1.2006056891
-1.8226026799
-1.6428959571
3.0465410132
-0.7038294136
-2.1407662912
0.0027245048
0.0149933026
-0.0004027525
-1.7410178219
3.0559261628
-0.3713985787
-4.1909478615
-2.2847858217
2.2297491708
0.3117283386
0.5698600618
0.0064853578
-0.0038092479
0.0127359986
4.3022158632
4.1267283100
-1.7253669722
0.0089022526
-2.9053994870
-1.5396836857
1.7533641271
-0.5532519210
-0.0010034604
0.0086808484
0.0084387472
0.3859708237
-0.0211717173
-4.3905726106
-0.0800445293
2.8550066113
-1.4236925271
1.2985530577
0.1959951384
-0.0039811377
-0.0090211504
-0.0022705647
0.3509637820
3.5780981075
1.1994408558
-3.6020513840
1.6989888132
3.0533604794
-0.8312776604
-2.9099155957
0.0046124528
-0.0027410723
0.0111583359
-4.1331406327
5.0186718531
2.3228809240
-0.2654814848
0.4225691186
0.5801211293
-0.8658852502
-1.7720669189
-0.0031447004
-0.0023068641
0.0128479497
5.8045792519
0.3794721904
-1.1422818332
0.8417883155
-1.0261396053
3.8396691557
-0.5197955113
0.5561792031
-0.0061343714
0.0054320209
0.0067372835
8.3219428086
8.4102205449
5.0736186067
5.9338107718
-1.8699173184
1.4438961042
0.9268823049
-0.4318084192
0.0083162177
0.0035617526
-0.0003655288
-12.2948231492
4.8025382160
-8.1542933133
-1.0444719798
-4.9554859234
-0.4060623119
-1.2183295467
0.0425496571
0.0124793397
-0.0122847721
-0.0033890049
10.9232836132
-7.7824348790
13.4410717513
7.9915755473
10.6899001263
5.2489204541
-4.4754638701
-3.1283555048
-0.0137193742
0.0123410766
0.0082722903
-2.2603868309
2.7763148279
6.2861145727
-11.5710686268
-4.7859852890
1.3696707318
5.4264698836
7.3339608969
-0.0008575828
-0.0097410736
-0.0112508767
-15.5645005585
-4.2761881660
-20.2914579952
1.5293169533
-1.8191590938
5.6730586138
-5.4815829709
-1.5488715052
-0.0011106171
-0.0117626775
0.0074102337
22.3337648296
3.0574555134
-2.3802896716
7.0024505950
3.0816239065
-3.8645759373
12.7488911929
4.1305635410
-0.0028596607
-0.0027812700
-0.0030222148
-12.7940173736
-2.2368382103
1.1776806440
-9.9343206512
-8.5998568190
-4.4428553433
-2.9690614366
-1.2189137448
0.0105298871
0.0036559645
-0.0029384441
26.2856393660
13.9999154927
-2.5471053120
10.4219770363
2.3977413505
4.9001404641
1.2590448762
-6.6199202616
0.0166243128
0.0129622723
0.0063163764
5.0075104746
-24.1934606030
2.0633110225
12.4147650458
2.5583754811
-7.3310877066
-9.7731283330
-1.2461140405
-0.0076445117
0.0024948919
-0.0031779034
-6.0808868164
-9.4207042866
6.2708562941
3.7862951909
-3.2487743316
-10.3106813650
7.0172483695
9.4722449947
-0.0141789907
-0.0092207678
-0.0169024689
-12.1539882226
6.8206662790
6.2149238636
-22.3219965017
8.8866425395
5.9112154754
3.0833282788
-16.0918504573
0.0056840053
-0.0005487221
-0.0164349568
4.8846365668
-11.2433525719
-16.8902266258
21.2302729628
-3.7785301006
-7.5682963829
-7.0696696658
9.4845196510
-0.0071438105
-0.0041462386
0.0065485853
-5.0225533735
-2.5975925345
-3.8543797683
-12.6292376685
-2.7576144279
-8.5329209601
-0.9671972205
-2.1953275561
-0.0049514706
0.0000071814
-0.0177473237
9.3452579208
-9.2638722808
20.8082297778
13.8348697456
13.5130772708
-3.3674531706
-1.5769765303
-3.0111019797
-0.0086578147
0.0038251406
-0.0016185888
-19.6060258436
-4.3205849399
-20.2923402631
-17.8362681895
-5.8110233264
-4.9590614167
-1.1473800792
-6.8302364358
-0.0043393720
-0.0103448737
-0.0179227507
21.8842905995
11.4499919934
15.4741167150
8.6700599212
-0.1894283128
8.1899815834
6.6092815258
2.7830939109
0.0113012584
0.0061938131
0.0039744990
-15.0586846201
-1.0938097232
6.2886825754
6.1534576461
8.4980404397
-10.1245292042
-1.5096751954
-2.8815023574
-0.0016279831
-0.0165908061
0.0010150645
-10.9647832619
-6.4628759496
-13.4611140103
-3.4817993802
-6.3608052236
8.5316377094
3.5674463761
-5.2408138115
-0.0057162109
-0.0051070890
-0.0120600590
5.8258286401
-7.1390595272
13.5895983710
7.4869965655
-1.2732661562
-6.9761741562
-0.9373736725
5.1997313516
-0.0061712767
0.0178088064
-0.0040689646
0.2262477849
0.7184530219
-4.8691633102
-2.2830779471
-1.0989856917
2.4918862626
1.9286205150
-1.8156353971
0.0060947026
-0.0034385899
-0.0126303906
-0.3255982427
2.2492273743
-1.9095495778
1.7118517841
2.7820100868
4.5831922537
-5.6665807925
-0.2412196625
0.0180308570
0.0013529821
0.0003068194
-7.2584751817
-5.3886377609
5.3717360538
-6.9449782894
-6.5287469654
0.6891899524
5.4838346479
-0.7260821770
0.0008006196
-0.0032983419
-0.0096295210
-3.6193388330
-2.5940522319
-7.8917770908
-1.5160813255
2.7265430480
-6.3037749273
-3.0564280940
0.8075770714
0.0005188485
-0.0058922224
0.0046223992
6.9381250971
6.2937917102
-2.8244705460
-1.9866217033
-1.6145332650
3.8535706061
-4.0585191761
-0.1699325128
0.0201890578
0.0148182348
0.0061899633
-2.2663307598
3.4403070118
8.0603865053
-3.2290313023
-6.6159542279
-7.7424939169
4.0486319469
1.4973168387
-0.0099859732
0.0067175813
0.0015481346
2.6658171928
-1.6598818606
0.2252730878
5.8025460102
0.9204572380
0.1544536718
-4.6275876181
-0.5665547246
-0.0026144942
0.0060841264
0.0088422639
1.5747116776
5.3478671079
3.7356300451
-7.7057259551
-1.4208397303
4.4571136557
-2.4061005461
-2.0302452683
0.0157793505
0.0130485809
0.0028249534
7.1872049417
-8.9758261107
27.4111394527
9.7144154252
0.0067230730
-0.0163955615
0.0089017413
-0.5911255349
-0.4980765488
-1.8854695946
-1.4517705597
1.8426554546
2.9553199993
-1.1000637715
-0.7402838320
-0.0107851187
-0.0075816594
0.0083817787
4.4356339196
0.4946628795
-0.7215974530
-1.5108661333
-3.5006242697
1.0473754688
0.8645173571
1.0004460455
0.0043220526
0.0067125324
0.0050951897
-4.6279167370
3.6375592248
-0.6816039857
-0.4305250009
0.0432049549
-0.8602149108
0.1189737969
-0.6442827277
0.0035761902
-0.0129660876
0.0072280057
-1.7535430363
-3.5824527666
-1.5768478302
4.3017744280
0.3454371949
0.6995711130
2.3778005930
-1.3938670539
-0.0142185138
-0.0069739404
-0.0097415256
3.5941418938
-4.1154390506
1.2851950753
-0.8778502861
-4.7921066453
0.5382041983
-0.7441377316
1.9657303244
0.0063704267
0.0080028629
-0.0079081978
2.9326511806
2.4384685886
-1.6585303510
-3.2501044127
-0.5784665815
-1.4509124943
-1.4930970731
-0.3451225933
0.0088422457
0.0083499665
0.0126621366
5.0856152307
-0.8314185629
1.7621442534
-2.1803274610
-2.5075047620
3.3029370513
-0.0268842882
-2.8347422005
0.0026449417
0.0185546718
0.0087791285
-3.9129351592
1.9168065365
-0.5655432483
1.7673465995
3.2689737899
-0.7526142819
-0.1831347351
-1.6193741684
-0.0175555060
-0.0079205574
0.0016826859
-3.0608451670
-1.9868974391
0.3164031439
1.5720151639
0.3419353833
1.5911158964
-1.0113569178
1.2231903081
0.0015990335
-0.0135783025
-0.0061304313
-1.8241843210
-2.6938706402
-1.1711653913
0.1967365448
1.1682366079
-1.9314403031
1.3340866216
2.3354846119
0.0038003375
-0.0096975081
-0.0077868504
5.6159499754
4.1356459877
-0.9103017063
-1.7670673748
-3.9908555864
-1.5008628329
-0.9811976447
-0.6045210948
0.0143968758
0.0150611734
0.0115808785
4.2200312818
-0.7618900238
-2.0759930201
3.4251497638
-0.2175875502
-1.8891410207
-0.5683675901
1.8093595591
-0.0146188027
0.0053739197
-0.0055431453
3.3950807447
0.9042614534
5.3165202025
-2.2905360742
-1.7340216487
0.7647672043
0.7107237080
-1.1741471507
0.0148950787
0.0135426603
-0.0052668476
-2.2945375195
4.6259397235
-1.3064338420
5.7792898160
-2.6479894657
-1.6321488293
1.5833071927
1.4134326301
-0.0063409824
0.0011879526
0.0129762700
10.8801089795
4.3388718907
-3.6272810876
-2.9910916842
2.4080328887
3.7932205595
-1.6784021661
-0.8853859279
-0.0061449853
0.0025060600
-0.0003655585
0.0780476298
14.0519852469
8.0209809047
12.1336893599
-1.6192092788
7.1550307320
1.7398053213
0.6994659816
0.0119858758
0.0071173259
0.0086220213
0.6386105365
5.9800735712
8.0009606620
-6.6830527678
0.8820833121
3.7925462721
-2.4950075977
0.7586357215
0.0029127210
0.0061773288
-0.0027202435
11.6678307426
16.4008159322
-12.3927660649
12.8937167759
8.9158176261
8.6883733380
-3.6260149614
9.8960248797
0.0077551695
-0.0149732183
0.0157058532
-14.8213296089
-7.5252044317
4.5981887791
-6.5219341192
-0.9797180994
5.4694266668
8.0502257272
-2.4031185993
-0.0188324352
0.0099551893
-0.0097328270
22.9479690329
19.4454759386
12.5542316434
-2.7834119613
-0.6377118681
9.6153567184
-7.0903199271
0.0237148963
0.0106520220
0.0184547608
0.0035041450
5.0262622103
-12.5331900637
-2.4961768803
-0.0941215534
8.3650882026
5.9746102485
5.4325553288
5.0333010156
-0.0198040029
-0.0095153898
0.0091956331
-23.5659427701
11.5933801406
16.4123163577
-2.9534049094
-9.3122675582
9.7391146844
5.6471074366
-1.3649630293
0.0181653139
-0.0027897245
0.0057536123
7.7286766739
-2.2379905876
-5.5843857478
2.1834115626
1.2084272654
-4.7900327533
-7.7509954921
11.0700911388
0.0054593237
-0.0102467204
0.0024355977
-4.1793627351
10.2644079036
-2.2443409282
4.9116359382
2.6908169377
9.7869776985
-0.8543012516
-3.0178692514
-0.0018208808
-0.0003055748
0.0061151232
-13.7664907849
-26.4223090629
-6.9423401149
8.4168972173
-1.3000855161
6.4042116922
1.1897634745
2.5594253420
-0.0077775567
-0.0085978494
-0.0040988312
18.3714550919
3.8339683946
-8.1310860118
-28.1111732339
5.6383213908
1.7224205633
3.1971441764
0.1878817623
0.0090871534
-0.0044138857
-0.0157563232
-7.8150943066
7.1246098261
-2.1745435641
-8.3157088395
-1.7833655415
1.2219510194
-0.5196757764
-10.5567318494
0.0090845676
0.0043613125
0.0146979113
3.8703376720
-10.3551284379
11.2794854413
11.7964507911
-0.5513694436
6.0668403552
-7.9325702329
4.9203634777
0.0083645553
0.0057011872
0.0177304170
12.5011373228
-15.4506816793
3.8920175808
-7.8843037423
-2.3659129039
-13.4493976243
15.0242493956
-0.4226160704
-0.0177742460
-0.0117009931
-0.0062760509
-7.6155205559
10.2433014287
-21.2323981841
-5.3542874323
7.2266994139
8.2053067144
-4.6275996309
0.2098423647
0.0181635905
-0.0144784166
0.0106385965
3.3112991129
-18.5143275071
7.0438611989
0.1912626800
-7.9787139038
-5.6832769217
-3.2988612092
0.3020980847
-0.0084020668
0.0151390400
0.0040436295
-4.8866267026
9.5415537802
16.2634251304
-16.3066531924
1.0619286852
-15.1225354950
8.9763807642
-7.0444711997
0.0083779051
-0.0021990263
0.0047115748
-11.6802232469
-10.2557940224
-16.7561307402
-2.0268653624
-10.7960085921
-1.7028780324
-6.8966365343
-8.1900266301
-0.0109135329
-0.0038088694
0.0103171361
5.2408220245
-2.5257368095
0.7959536630
-0.4121848149
5.0234768471
-2.7713441312
-4.1731253620
-5.1245197044
0.0059131286
0.0088428830
0.0127663771
-0.4152657799
-26.5265604694
10.8323690748
-3.0822039147
-6.0144676246
-12.3644176031
9.2282296809
-1.5729306433
-0.0255615132
0.0072141858
-0.0055836424
1.4388183460
10.7295093885
-2.5298545085
-11.3163847904
4.3957133932
-14.0013390114
-1.7973921362
-6.6178754102
0.0045489683
-0.0042422558
-0.0009000328
-6.1231007715
-8.9943098611
0.2624699391
0.9160182764
8.9794544566
-6.9846154395
-6.1002636323
-11.8162558791
-0.0121389160
-0.0064700883
0.0122037844
4.8276654180
-0.0246464286
1.6648484636
4.2882529604
2.6650469029
-17.3724813445
4.5562922839
-4.8582970798
-0.0056324274
-0.0055588937
-0.0051194674
-0.4353717121
0.1368324446
2.1931395467
-0.2068317157
0.6889165563
2.0817449545
-0.9762635080
-6.1163563726
0.0137949868
-0.0043077589
-0.0038580592
17.8187526159
32.7209709241
3.6113581425
-10.0481339847
0.0151198598
0.0092119153
0.0250379228
5.1083956778
3.4321223787
1.0296154620
0.1651754435
0.0027822653
0.0139687541
0.0123948307
2.4932239082
0.7295732639
1.3570944080
-1.0978587642
0.0103648902
0.0157933062
0.0036834407
4.8293182287
0.7400323137
1.8072334108
-2.7218211957
0.0207176546
0.0162330615
0.0021762865
0.2812990778
5.7497071790
-0.6907633167
-3.3757302561
0.0104914779
0.0043181110
0.0179522772
5.8518309837
2.2833134119
0.8612941083
1.5859540030
-0.0072499892
0.0208536587
0.0034637856
-0.5690165114
-2.3537172504
2.0795969265
0.7561071570
0.0125611610
0.0012653430
-0.0107493412
1.4052896928
4.2888552677
-0.8641669588
-1.8796682478
0.0126586903
0.0057949613
0.0148202224
0.9072625651
1.1133887911
-1.4093007376
1.2366844955
0.0096824517
-0.0002290746
-0.0004533581
6.4073380312
0.3610514880
1.6667931376
1.2021308614
0.0091932932
0.0207620772
0.0016130086
1.6164747783
-3.3959282931
1.3681693238
3.1414471027
0.0168913058
0.0103210208
-0.0124871107
-0.4851024121
-1.5171978714
0.9935217945
1.9401760138
0.0130745285
0.0035992772
-0.0100355386
3.2724259425
-1.8820273760
-0.0664503038
3.9245315527
0.0010040316
0.0110335589
-0.0123950363
-1.2526006518
-0.9015539924
1.8656362135
3.0606143353
0.0086171491
-0.0018440066
-0.0059032158
3.7963372495
1.6833470209
-1.0907196814
0.0257833423
0.0179395202
0.0135953325
0.0005296158
1.4840032135
-1.6021629259
1.7830876784
2.9612666215
0.0104226037
0.0022880333
-0.0089936437
6.8287580238
3.2046295342
-1.1483113547
0.6319225378
0.0141142508
0.0146382604
0.0005191620
2.6824775890
4.6605589690
-1.2145135742
3.7107668646
0.0105113925
0.0035669443
0.0038278707
4.1159003766
5.6012506321
-1.9860696347
4.2546969116
0.0218128263
0.0011517589
-0.0033462665
2.1289274135
0.8810556384
3.0706249816
1.3698861728
0.0010940012
0.0033997187
-0.0109099905
1.3454855367
19.0484905164
-0.0198129681
15.2136221243
0.0168557483
0.0139375782
0.0009614883
10.4493539037
20.3821291784
3.2380555893
2.2088204420
0.0210963967
0.0144926102
-0.0059580403
-2.2334440833
21.8259871352
15.3699682078
13.0142745641
0.0097962193
0.0174400196
0.0053732046
6.8159817186
-5.3198007927
-10.3364955553
0.2679338353
-0.0010261691
0.0042777988
-0.0024645170
5.6385169486
25.7995529867
-3.3845512484
-1.9246047960
0.0251688485
0.0021363279
0.0042871533
-5.2204929644
19.0598399534
7.1692246269
8.9574986298
0.0156125845
0.0047308788
0.0109682091
12.1162341002
22.0171202437
-2.7970984565
16.5995498346
0.0210510253
0.0023967846
0.0106900869
-3.2944086539
3.2118421296
1.5379517625
-5.7628080576
0.0059720232
0.0048228442
-0.0058570697
-3.8169431582
32.6857659942
-1.0708397908
0.8120588212
0.0193511395
0.0110285957
0.0088947426
-0.4591649629
18.2065246971
10.3591624866
22.3530191052
0.0126342086
0.0135112838
0.0173577780
14.4089333157
7.4384230356
-1.8121902082
11.2412199344
0.0033135252
0.0080385168
-0.0013980928
4.8481384491
10.1790898871
-14.0116827342
11.0452461654
0.0066209537
0.0072744049
-0.0037625553
0.5906903950
28.4540612395
24.6730044458
12.7570584725
0.0151489843
0.0188377934
-0.0092640443
-8.9760250637
-6.1739057816
-17.0360385706
-11.0566592365
0.0055661517
0.0012820645
-0.0087837053
23.6665826868
42.0617251690
-4.0694871764
-7.2730720978
0.0278719013
0.0094320955
0.0088679476
-23.6209822269
22.7329143356
29.2616702116
20.4762841236
0.0209451140
0.0086793547
0.0173283643
15.3391062952
-18.6246238674
0.6366530438
19.9900487266
0.0019905777
-0.0004982018
0.0016036162
-17.1671145716
20.3492306350
-7.7916266852
1.1865267198
0.0280659173
-0.0025625647
-0.0127572712
19.7723049399
5.7245509267
-7.2441962400
-25.2337296410
0.0105151700
0.0100395265
0.0000485855
-2.5776676033
-1.0759278633
6.1280022312
11.2910770780
0.0004809187
0.0125007554
0.0178825583
19.4106027534
0.4169019999
0.0152472555
-0.0031982346
0.0037536735
