1919
0.0000000000
0.0000000000
0.0000000000
0.0000000000
0.0000000000
0.0000000000
0.0000000000
0.0000000000
0.0000000000
0.0000000000
0.0000000000
0.0000000000
0.0000000000
0.0000000000
0.0000000000
0.0000000000
0.0000000000
0.0000000000
0.0000000000
0.0000000000
0.0000000000
0.0000000000
0.0000000000
0.0000000000
0.0000000000
0.0000000000
0.0000000000
0.0000000000
0.0000000000
0.0000000000
0.0000000000
0.0000000000
0.0000000000
0.0000000000
0.0000000000
0.0000000000
0.0000000000
0.0000000000
0.0000000000
0.0000000000
0.0000000000
0.0000000000
0.0000000000
0.0000000000
0.0000000000
0.0000000000
0.0000000000
0.0000000000
0.0000000000
0.0000000000
0.0000000000
0.0000000000
0.0000000000
0.0000000000
0.0000000000
0.0000000000
0.0000000000
0.0000000000
0.0000000000
0.0000000000
0.0000000000
0.0000000000
0.0000000000
0.0000000000
0.0000000000
0.0000000000
0.0000000000
0.0000000000
0.0000000000
0.0000000000
0.0000000000
0.0000000000
0.0000000000
0.0000000000
0.0000000000
0.0000000000
0.0000000000
0.0000000000
0.0000000000
0.0000000000
0.0000000000
0.0000000000
0.0000000000
0.0000000000
0.0000000000
0.0000000000
0.0000000000
0.0000000000
0.0000000000
0.0000000000
0.0000000000
0.0000000000
0.0000000000
0.0000000000
0.0000000000
0.0000000000
0.0000000000
0.0000000000
0.0000000000
0.0000000000
0.0000000000
0.0000000000
0.0000000000
0.0000000000
0.0000000000
0.0000000000
0.0000000000
0.0000000000
0.0000000000
0.0000000000
0.0000000000
0.0000000000
0.0000000000
0.0000000000
0.0000000000
0.0000000000
0.0000000000
0.0000000000
0.0000000000
0.0000000000
0.0000000000
0.0000000000
0.0000000000
0.0000000000
0.0000000000
0.0000000000
0.0000000000
0.0000000000
0.0000000000
0.0000000000
0.0000000000
0.0000000000
0.0000000000
0.0000000000
0.0000000000
0.0000000000
0.0000000000
0.0000000000
0.0000000000
0.0000000000
0.0000000000
0.0000000000
0.0000000000
0.0000000000
0.0000000000
0.0000000000
0.0000000000
0.0000000000
0.0000000000
0.0000000000
0.0000000000
0.0000000000
0.0000000000
0.0000000000
0.0000000000
0.0000000000
0.0000000000
0.0000000000
0.0000000000
0.0000000000
0.0000000000
0.0000000000
0.0000000000
0.0000000000
0.0000000000
0.0000000000
0.0000000000
0.0000000000
0.0000000000
0.0000000000
0.0000000000
0.0000000000
0.0000000000
0.0000000000
0.0000000000
0.0000000000
0.0000000000
0.0000000000
0.0000000000
0.0000000000
0.0000000000
0.0000000000
0.0000000000
0.0000000000
0.0000000000
0.0000000000
0.0000000000
0.0000000000
0.0000000000
0.0000000000
0.0000000000
0.0000000000
0.0000000000
0.0000000000
0.0000000000
0.0000000000
0.0000000000
0.0000000000
0.0000000000
0.0000000000
0.0000000000
0.0000000000
0.0000000000
0.0000000000
0.0000000000
0.0000000000
0.0000000000
0.0000000000
0.0000000000
0.0000000000
0.0000000000
0.0000000000
0.0000000000
0.0000000000
0.0000000000
0.0000000000
0.0000000000
0.0000000000
0.0000000000
0.0000000000
0.0000000000
0.0000000000
0.0000000000
0.0000000000
0.0000000000
0.0000000000
0.0000000000
0.0000000000
0.0000000000
0.0000000000
0.0000000000
0.0000000000
0.0000000000
0.0000000000
0.0000000000
0.0000000000
0.0000000000
0.0000000000
0.0000000000
0.0000000000
0.0000000000
0.0000000000
0.0000000000
0.0000000000
0.0000000000
0.0000000000
0.0000000000
0.0000000000
0.0000000000
0.0000000000
0.0000000000
0.0000000000
0.0000000000
0.0000000000
0.0000000000
0.0000000000
0.0000000000
0.0000000000
0.0000000000
0.0000000000
0.0000000000
0.0000000000
0.0000000000
0.0000000000
0.0000000000
0.0000000000
0.0000000000
0.0000000000
0.0000000000
0.0000000000
0.0000000000
0.0000000000
0.0000000000
0.0000000000
0.0000000000
0.0000000000
0.0000000000
0.0000000000
0.0000000000
0.0000000000
0.0000000000
0.0000000000
0.0000000000
0.0000000000
0.0000000000
0.0000000000
0.0000000000
0.0000000000
0.0000000000
0.0000000000
0.0000000000
0.0000000000
0.0000000000
0.0000000000
0.0000000000
0.0000000000
0.0000000000
0.0000000000
0.0000000000
0.0000000000
0.0000000000
0.0000000000
0.0000000000
0.0000000000
0.0000000000
0.0000000000
0.0000000000
0.0000000000
0.0000000000
0.0000000000
0.0000000000
0.0000000000
0.0000000000
0.0000000000
0.0000000000
0.0000000000
0.0000000000
0.0000000000
0.0000000000
0.0000000000
0.0000000000
0.0000000000
0.0000000000
0.0000000000
0.0000000000
0.0000000000
0.0000000000
0.0000000000
0.0000000000
0.0000000000
0.0000000000
0.0000000000
0.0000000000
0.0000000000
0.0000000000
0.0000000000
0.0000000000
0.0000000000
0.0000000000
0.0000000000
0.0000000000
0.0000000000
0.0000000000
0.0000000000
0.0000000000
0.0000000000
0.0000000000
0.0000000000
0.0000000000
0.0000000000
0.0000000000
0.0000000000
0.0000000000
0.0000000000
0.0000000000
0.0000000000
0.0000000000
0.0000000000
0.0000000000
0.0000000000
0.0000000000
0.0000000000
0.0000000000
0.0000000000
0.0000000000
0.0000000000
0.0000000000
0.0000000000
0.0000000000
0.0000000000
0.0000000000
0.0000000000
0.0000000000
0.0000000000
0.0000000000
0.0000000000
0.0000000000
0.0000000000
0.0000000000
0.0000000000
0.0000000000
0.0000000000
0.0000000000
0.0000000000
0.0000000000
0.0000000000
0.0000000000
0.0000000000
0.0000000000
0.0000000000
0.0000000000
0.0000000000
0.0000000000
0.0000000000
0.0000000000
0.0000000000
0.0000000000
0.0000000000
0.0000000000
0.0000000000
0.0000000000
0.0000000000
0.0000000000
0.0000000000
0.0000000000
0.0000000000
0.0000000000
0.0000000000
0.0000000000
0.0000000000
0.0000000000
0.0000000000
0.0000000000
0.0000000000
0.0000000000
0.0000000000
0.0000000000
0.0000000000
0.0000000000
0.0000000000
0.0000000000
0.0000000000
0.0000000000
0.0000000000
0.0000000000
0.0000000000
0.0000000000
0.0000000000
0.0000000000
0.0000000000
0.0000000000
0.0000000000
0.0000000000
0.0000000000
0.0000000000
0.0000000000
0.0000000000
0.0000000000
0.0000000000
0.0000000000
0.0000000000
0.0000000000
0.0000000000
0.0000000000
0.0000000000
0.0000000000
0.0000000000
0.0000000000
0.0000000000
0.0000000000
0.0000000000
0.0000000000
0.0000000000
0.0000000000
0.0000000000
0.0000000000
0.0000000000
0.0000000000
0.0000000000
0.0000000000
0.0000000000
0.0000000000
0.0000000000
0.0000000000
0.0000000000
0.0000000000
0.0000000000
0.0000000000
0.0000000000
0.0000000000
0.0000000000
0.0000000000
0.0000000000
0.0000000000
0.0000000000
0.0000000000
0.0000000000
0.0000000000
0.0000000000
0.0000000000
0.0000000000
0.0000000000
0.0000000000
0.0000000000
0.0000000000
0.0000000000
0.0000000000
0.0000000000
0.0000000000
0.0000000000
0.0000000000
0.0000000000
0.0000000000
0.0000000000
0.0000000000
0.0000000000
0.0000000000
0.0000000000
0.0000000000
0.0000000000
0.0000000000
0.0000000000
0.0000000000
0.0000000000
0.0000000000
0.0000000000
0.0000000000
0.0000000000
0.0000000000
0.0000000000
0.0000000000
0.0000000000
0.0000000000
0.0000000000
0.0000000000
0.0000000000
0.0000000000
0.0000000000
0.0000000000
0.0000000000
0.0000000000
0.0000000000
0.0000000000
0.0000000000
0.0000000000
0.0000000000
0.0000000000
0.0000000000
0.0000000000
0.0000000000
0.0000000000
0.0000000000
0.0000000000
0.0000000000
0.0000000000
0.0000000000
0.0000000000
0.0000000000
0.0000000000
0.0000000000
0.0000000000
0.0000000000
0.0000000000
0.0000000000
0.0000000000
0.0000000000
0.0000000000
0.0000000000
0.0000000000
0.0000000000
0.0000000000
0.0000000000
0.0000000000
0.0000000000
0.0000000000
0.0000000000
0.0000000000
0.0000000000
0.0000000000
0.0000000000
0.0000000000
0.0000000000
0.0000000000
0.0000000000
0.0000000000
0.0000000000
0.0000000000
0.0000000000
0.0000000000
0.0000000000
0.0000000000
0.0000000000
0.0000000000
0.0000000000
0.0000000000
0.0000000000
0.0000000000
0.0000000000
0.0000000000
0.0000000000
0.0000000000
0.0000000000
0.0000000000
0.0000000000
0.0000000000
0.0000000000
0.0000000000
0.0000000000
0.0000000000
0.0000000000
0.0000000000
0.0000000000
0.0000000000
0.0000000000
0.0000000000
0.0000000000
0.0000000000
0.0000000000
0.0000000000
0.0000000000
0.0000000000
0.0000000000
0.0000000000
0.0000000000
0.0000000000
0.0000000000
0.0000000000
0.0000000000
0.0000000000
0.0000000000
0.0000000000
0.0000000000
0.0000000000
0.0000000000
0.0000000000
0.0000000000
0.0000000000
0.0000000000
0.0000000000
0.0000000000
0.0000000000
0.0000000000
0.0000000000
0.0000000000
0.0000000000
0.0000000000
0.0000000000
0.0000000000
0.0000000000
0.0000000000
0.0000000000
0.0000000000
0.0000000000
0.0000000000
0.0000000000
0.0000000000
0.0000000000
0.0000000000
0.0000000000
0.0000000000
0.0000000000
0.0000000000
0.0000000000
0.0000000000
0.0000000000
0.0000000000
0.0000000000
0.0000000000
0.0000000000
0.0000000000
0.0000000000
0.0000000000
0.0000000000
0.0000000000
0.0000000000
0.0000000000
0.0000000000
0.0000000000
0.0000000000
0.0000000000
0.0000000000
0.0000000000
0.0000000000
0.0000000000
0.0000000000
0.0000000000
0.0000000000
0.0000000000
0.0000000000
0.0000000000
0.0000000000
0.0000000000
0.0000000000
0.0000000000
0.0000000000
0.1049253295
-0.0822546399
-0.0268711018
0.2146599691
0.0256563044
-0.2183324672
0.1804727900
0.0624607662
-0.2789237831
0.0103191211
0.1075256144
-0.0780531609
0.3540798340
-0.0619291741
-0.0968837556
0.2480249839
-0.0216574802
-0.1987991893
-0.0403399213
-0.0967236367
0.2407637017
0.0533934901
-0.1169502695
0.4043890256
-0.3393461361
0.0733149262
-0.0018755504
0.2320097596
-0.0978773077
-0.0407424178
-0.0339016829
0.0004007386
0.0051690301
0.1026694847
-0.2153541475
0.0618997569
0.1378390451
0.1009781494
-0.0534677735
0.1122237027
-0.1258406966
-0.1184930233
0.0051967269
0.3025544061
-0.3030112765
-0.0194402864
0.0967541379
0.2187548303
-0.0989337064
-0.2561469457
0.2465525146
-0.2194781675
0.1020572542
-0.0211555947
0.0945524144
0.1181111647
0.0751347262
-0.4395182009
0.1354404975
0.0877971593
-0.2835198459
0.3855945230
-0.3895305882
0.0634591756
0.0148885242
0.2675686835
0.0145379606
0.1249780443
-0.3824559682
-0.0883128559
0.1179778793
-0.0915038863
0.1244643573
0.0875058095
-0.0133432331
-0.1208914826
0.0073396926
0.2040618802
0.0789191307
-0.1195487342
-0.0425011232
0.1227301818
-0.1807249851
0.0679153607
0.2303875545
-0.1002755902
-0.1856892789
0.3110822024
-0.0893502840
-0.0104702818
0.1330761918
-0.2655921171
0.1276112491
0.2464634778
-0.3095181829
-0.1235933034
0.2751916049
-0.2039973466
0.0217231323
0.1855989238
-0.0819270330
-0.0879597210
0.3490459231
-0.5038183077
0.4188643349
-0.3178953425
0.0294862763
0.1634947058
-0.1906308619
0.2625273229
0.0556833653
0.0284735476
-0.0255326460
-0.2933998179
0.3144264520
-0.1687469596
-0.1066218425
0.2462626122
-0.2403932095
0.2102815543
-0.2354225202
-0.0662074339
0.3707516935
-0.2634996688
0.0794282050
0.2053211931
-0.0436144591
-0.0684574894
-0.1591927543
0.1015064867
0.2937881347
-0.2703951787
-0.0473354756
0.3304969840
-0.3782489082
0.1358166341
-0.1191645030
0.2601005933
-0.0496210247
0.1457184065
-0.1719378709
-0.0157641781
0.1118969955
-0.0136147673
-0.1372289340
-0.0667392750
-0.0906416273
0.0885454117
0.1360680497
0.0788780004
-0.1082423527
0.0775264045
-0.0068287040
-0.2127188851
0.2427171125
0.0826916403
0.0276683892
-0.2403000484
-0.1367867710
0.2557428167
-0.1334343166
0.0171019734
0.1953119765
-0.2468176980
0.1071982656
-0.0670951050
0.0382548217
-0.0798352323
-0.1002917327
0.1610652870
0.1902051900
-0.1251212942
-0.1630669282
0.1867568612
0.1856163228
-0.2370896390
0.0637296995
-0.1504852095
-0.0912153797
0.1274769022
0.1466879999
-0.0132714551
-0.2664932942
0.3862721118
-0.2019506302
0.1929398073
0.0003283229
-0.0342904673
-0.2135264581
-0.1496113919
0.2307761716
0.0501156549
-0.1088411788
-0.0818301298
0.2466128214
-0.0110773974
-0.1254739998
-0.0819251383
0.2585716414
-0.0132657728
-0.2955403731
0.1389248051
-0.1245688155
0.1691767828
-0.0564465994
0.0165530492
-0.0895762009
0.1776812890
-0.0683546443
0.0230905067
-0.0400864298
-0.0750052645
0.1414255824
-0.0675744188
0.1039313733
-0.0420815362
-0.0493774903
0.0700827450
-0.2414694263
0.1656361201
-0.0798790020
0.1644434149
0.0532853850
-0.0370341527
-0.0178577644
0.0339315873
-0.0437054365
-0.1538848550
0.0859390918
-0.1434754403
0.0042796151
-0.0089061273
0.0282121973
0.2202778154
-0.0727101357
0.0414944623
-0.1976400463
0.0794825864
-0.0128608456
0.1307832977
0.0514933445
-0.0876872459
-0.0822530725
-0.0104719215
0.0141650258
0.2099760282
-0.0683983537
-0.2558252965
0.3108226183
-0.1807052193
0.0038795762
0.1199117290
-0.1791057599
-0.0255759664
0.1212129264
0.1518467576
-0.0663973041
-0.0251413329
0.1092450967
-0.2080577917
0.1265618975
-0.1990500413
0.0987861460
-0.0100564883
0.0377895142
-0.1357168505
0.1030704838
-0.2137508903
0.1932705977
-0.0957720518
-0.1342951486
0.0901616963
0.1400374777
-0.1551525757
0.1168639044
0.0327200589
-0.2384910785
0.2083391859
0.0225664096
-0.1283436947
0.1586232815
-0.1188163217
-0.0122428022
0.1731473448
-0.0262525988
-0.1432731090
0.0879238700
-0.0464270671
-0.0552392553
0.1842970484
-0.2156688157
0.0419002339
-0.0003891664
-0.0870660101
0.0307193689
0.0365435646
0.1096447232
-0.1747068200
-0.0105236303
0.0231705530
0.0086388615
0.0781353225
-0.1403818928
0.1616793505
-0.1115529257
-0.0886998153
0.2133630830
-0.2209426052
0.2176573763
-0.1918253825
-0.0474919956
0.0741651672
0.0994813660
-0.1803700345
0.0438944948
-0.0541331231
0.1838900460
-0.0067293350
-0.1299214051
0.1197939946
0.0596768760
-0.0684819660
-0.1538490399
-0.0145281184
0.2243944609
-0.1390473143
0.0834150066
0.0653231222
0.0012522917
-0.2549273489
0.0984755552
0.0093998786
-0.0225873801
-0.1174889524
0.0153286460
0.1497329415
-0.1689673407
0.0699204789
0.0603884708
-0.0579042409
0.0305354845
-0.1461994283
0.0287222992
0.1447421296
-0.0856149163
-0.0246027710
0.0588676234
-0.1092672049
0.1286956747
-0.0910981963
-0.0440916107
0.0594718512
0.0049510039
-0.0604773156
0.0084713484
0.1316389209
0.0163365604
0.0683703563
-0.1354269968
0.0765331621
-0.1155467631
0.1459932486
-0.0826454955
0.1066690161
0.1338918153
-0.0127621721
-0.1191451031
0.0083436797
0.0502428470
0.0642349040
0.0355572756
-0.0794561868
0.0930570222
-0.0910925433
0.0742278742
-0.0269567737
-0.0151840831
0.1740678304
-0.1258650545
-0.0602213493
0.2519655260
-0.1197856319
-0.1097635905
-0.0060970452
0.0111446408
0.1417239786
0.0583661295
-0.1151527520
-0.0411388280
0.0340273852
0.1547223610
-0.2107385567
0.0635430342
0.0818781613
0.0379844888
-0.0595251483
0.0939758440
-0.1172798906
0.1064582506
0.0072208537
-0.1586223996
0.0479707435
0.0839533569
-0.0795945698
0.0174231826
0.0706811808
-0.1507379240
0.1529631328
0.0167178335
-0.1622282236
0.1200887486
-0.1753947766
0.0398114942
0.0511253646
-0.1086852352
0.1790280392
0.0215032596
-0.1629879913
-0.1088411837
0.0292733331
0.0031454697
-0.0769105357
0.2225059676
-0.1464427096
0.0012248993
-0.0172975149
-0.0197023592
0.0090870485
0.0518284062
-0.1482803462
-0.0030178423
0.0423105893
0.1459207812
-0.1447375073
-0.0583637544
0.1807496734
-0.0253612001
0.0719782621
-0.0008276278
0.0057026267
-0.1070028778
0.1233031092
-0.0582538109
-0.0898298644
-0.0468798626
0.1631170619
-0.1646700295
0.0576923042
0.0770632553
-0.0030052812
-0.0735099685
0.1518216237
-0.0016528863
-0.0959643837
-0.0794847364
-0.0132953438
0.1586370142
-0.1104317034
-0.0140436269
-0.0089946673
0.0268227668
0.0708183514
-0.0659813753
-0.0339060572
-0.0010344597
0.1119858856
-0.0015504430
0.1383433874
-0.0506766699
0.1146754065
-0.1348794327
0.0991776741
-0.1546649121
0.0021785238
-0.0760958818
-0.0482390448
0.0182054162
-0.0739192430
0.0926447918
-0.0412502202
0.1490189009
0.0112478838
-0.1099160432
-0.0027952365
0.0507967819
0.0200754088
-0.0189813947
0.0456344663
0.0463038757
0.0420324327
-0.0149787557
0.0108301792
0.1186788381
0.0635747702
-0.1667647013
0.0270258891
0.0148878896
-0.0643763252
0.1075560787
0.0070880487
0.1150749852
0.0577078874
-0.0682206121
0.0731281567
-0.1521839522
0.0655259940
0.0304344131
-0.0016786043
-0.0442375619
0.1143163375
-0.0464130663
-0.0383452007
-0.0226225170
0.1656611592
0.0178860856
-0.0060849901
-0.0236293723
0.0006782948
0.0106312106
-0.0749769544
0.0699744505
-0.1454533142
-0.0923139401
0.0028459091
-0.0194507773
0.0147319121
-0.0758714944
0.0424815284
0.1820746068
0.0035191279
-0.1209649514
0.0247091405
-0.0513845336
-0.1714203295
0.2144798918
-0.1854621603
0.0579967757
0.1335664558
0.0132212924
-0.1960120481
0.1393717817
-0.0098031048
-0.1378558141
0.0199069678
-0.0536557259
-0.0324797723
0.1134688067
-0.1448314483
0.0726605429
0.0987805539
-0.0928369614
0.0593540343
-0.1366564727
0.0920095084
-0.2267849877
0.1094898754
-0.0218201581
0.0963641111
0.0369892516
-0.0910587522
0.0949276402
-0.0791946976
-0.0145835399
0.0433031489
-0.1839046268
0.2078831328
0.0327798820
-0.1687364519
0.0650026742
0.0195296567
-0.0664254285
-0.0624198710
0.0441253349
0.1323597490
0.0719342311
0.0009100067
-0.0155399558
-0.0192791953
-0.0948879027
0.0467146152
0.1258055138
-0.3123227529
0.1334097449
0.0802152876
-0.1563737122
0.3080941867
-0.1519008499
0.0350351795
0.1144519338
-0.1960934017
0.1617568924
-0.2475578813
0.0673232884
0.0775731277
0.1166286337
-0.1006395194
-0.1757252021
0.1340659025
0.0770907590
-0.1328339932
-0.0262122600
-0.0369710851
0.0271179273
-0.0166197301
0.0123270200
0.2007326752
-0.0045002800
-0.1607412621
0.1927618027
-0.1396178985
0.0164126978
-0.0158351670
0.0102785259
0.1112597575
-0.2078786811
-0.1079055646
0.0673938728
-0.0310442698
-0.0216318148
0.0180378978
0.0180432713
0.0460601313
-0.1140500450
0.1926927393
0.1188881326
0.3394874882
0.1330039357
-0.1372180871
-0.1723904929
0.1295778469
-0.1732230482
0.0467409991
0.3598728001
0.1163137426
0.4221690995
0.3288209380
0.2762661394
-0.1679973554
-0.1644167237
0.1593261801
0.0946815905
-0.2985328629
0.0584068846
-0.0600752076
0.0625248740
0.1579721269
0.1269101916
-0.0345097719
-0.0634339103
0.1848916767
-0.1393886698
0.1545627487
0.2049707998
0.0928702672
-0.2532123125
-0.1486909485
0.1682490340
-0.0439449287
-0.0582045306
0.0053687028
0.0330245990
0.2602415067
-0.0442437850
0.0748528050
0.1043728800
0.1180773491
0.2642337922
-0.2697857451
-0.0013780008
0.2105426806
-0.0848422233
-0.0353209190
-0.0834842997
0.0104585182
-0.0733896939
-0.0590775003
0.0369980116
0.4242846066
-0.1895294469
0.0082126513
-0.0278971235
-0.0300055892
-0.0958395512
0.3033130887
0.0801080559
-0.0096677337
0.0453518379
-0.3151080633
0.2625099067
0.3799577172
-0.0204983036
0.1406703396
0.0252125270
0.2219601204
0.1708683436
0.3539741358
-0.0027244239
-0.1180714394
0.0853279552
0.0066218778
0.5046073782
0.0565661648
0.2023819384
0.1987167438
-0.0969851597
0.1540950213
0.3247530102
0.3071709352
0.0872391806
-0.2586395419
0.1884198970
0.1420528507
-0.1322561504
0.3233103097
0.0471089658
-0.0592250669
-0.1055886826
0.0913539576
0.0388075575
-0.0019783045
-0.0836151950
-0.0326245625
0.0351134221
0.2923023933
0.1046074431
-0.3299564183
0.0649029761
0.5008740412
-0.0581455895
0.0901604123
0.4010986182
-0.1516302533
0.0801268815
0.0475981990
-0.0658846617
0.3895141137
0.1040244837
0.2571923274
0.2229670355
0.1822003304
0.3461493750
-0.0763252432
-0.1784363664
-0.2523564256
-0.1868795399
0.2459834620
-0.0096512018
0.0718660091
0.2574402682
-0.0245206051
0.0271703557
0.0700488927
0.3732518810
0.4635943497
-0.1651877642
-0.0845750348
0.0720172927
0.2294136732
-0.1083789313
-0.0175562885
0.2351070050
0.1612119128
0.1811911707
-0.1542244191
0.1371644749
0.0782577623
-0.3608133223
0.1725500223
0.2558948089
0.2485051908
-0.1796456825
0.0542646050
0.0866969299
0.0157178900
0.0916081514
-0.1694253564
-0.2397549964
0.0234780063
0.2287276539
0.3036271417
-0.0185890821
0.2267366796
-0.0655497254
0.2288319622
0.1667866573
0.1216082062
0.1382333664
-0.2278481226
-0.1014675981
-0.0689375431
0.0445714967
0.0613899953
0.0631890587
0.1418025121
0.2428416411
0.0938373716
-0.2004410032
0.3021974618
0.1957418115
-0.0274155841
0.0840061668
0.0013308840
0.2761519492
0.0828462483
-0.0634116642
-0.0305028965
0.3158108723
0.0554986734
-0.1058977622
0.0852054302
-0.0580336497
0.2225745580
0.2223274767
0.1736907954
0.0000969883
-0.0473212829
0.2993214668
-0.3020863657
0.0631284711
-0.2244059170
-0.0407097914
0.0380787387
0.2028814471
0.3498447013
0.1402854425
0.0269254870
-0.0359515835
-0.0316046313
0.1497657657
-0.2253131162
-0.1896930808
-0.0504229649
0.0490100897
-0.0094789082
-0.0537721290
0.2861276210
-0.0658504794
0.1189656508
-0.0730999470
0.1093636319
0.1519676711
0.1610310488
-0.1012258711
-0.0472107990
-0.0630996940
0.1883418047
0.2055681863
-0.1897842375
0.2085787499
-0.0977388040
-0.0448380780
0.1099403943
-0.1342140356
0.0867672300
0.0553261068
0.2808358451
0.0375934493
-0.0347899050
0.1107736047
-0.0957046639
0.0192580403
-0.1298905542
0.0877425889
0.0910446009
0.0936975612
0.3561123896
0.2379977432
0.3393864082
0.0871982038
0.0554842484
0.0429629698
-0.1174147713
0.1534516859
0.2064407888
0.0803414019
0.0593751883
0.0349769413
-0.1141287828
0.1913001324
0.2144082520
0.0366763356
0.0188462363
-0.0542196434
0.1941441270
0.0424235023
0.1937901855
0.0694446627
0.0310340860
0.1641809986
0.1339292881
0.2018955055
-0.1742124119
-0.0721913591
-0.0363382488
-0.2336544027
-0.0081919911
-0.0925000718
0.2403503637
-0.0637087464
0.0546799368
-0.0403490416
-0.0960465846
0.0447512239
0.0094310545
0.0762610087
0.0549396551
0.0483136591
0.0831452431
0.1989419199
-0.1511309102
0.2312296154
-0.0726731418
-0.1622094097
0.1382165322
0.0402295880
-0.1617488809
0.0273624124
-0.1830444325
0.1143450801
0.1582058648
-0.1471465308
-0.0097228972
0.2079799351
0.0596064691
-0.0665229132
-0.0316183730
-0.0000782729
0.0853561986
0.1306004183
0.2067069720
0.2838403452
-0.0063939323
0.0663898075
-0.0284504470
0.0827482171
0.0855177706
-0.0536264112
-0.1067369628
0.1940204997
-0.1392012981
0.0407764096
0.1749121272
-0.1010900366
0.1520073795
-0.2117036243
0.0219700193
0.2194696072
0.0423579043
-0.0814869825
0.1507660741
-0.0139840067
0.1605397370
-0.1060896005
-0.1581888216
0.0320470094
-0.0874772816
-0.1854213959
-0.0926286970
0.1864682524
0.2135464877
0.0651428419
0.0710932924
0.0597070492
-0.1061601238
0.0302721988
0.1850072126
0.1858177650
-0.0896087300
0.1716347820
0.1582905486
-0.1024063882
0.0670878487
0.0442248317
0.0365063762
0.1342543197
0.0337520313
0.2701794124
0.1468782210
0.0722155297
-0.0331949356
0.0287290411
-0.0852169225
0.1942633183
0.1137563537
-0.0056105292
0.2353988529
0.1449960905
0.0347610551
-0.0899440454
-0.0970155805
-0.0220000793
0.1574184845
-0.0332302376
-0.0757297482
-0.1201143664
0.0288343712
0.1671244723
-0.0724648682
-0.0717833529
-0.0325533571
0.1040200745
-0.0603457230
0.1074215118
-0.0715283185
0.0852417190
0.1827956805
0.0641080346
0.0391127680
0.1560180691
-0.0052949034
0.0136470545
0.1471308126
0.2214012988
0.0824049132
0.0566723044
0.0101330494
-0.0474806157
0.0596633596
0.1913553026
-0.1438307087
0.1141417643
0.0906354592
-0.1029975121
0.0422739559
0.1145672682
-0.1548825935
-0.0391624546
-0.0233860731
0.0154109900
0.0151115899
-0.0614992959
-0.0790481976
0.1198430975
-0.0871709735
0.0624913536
-0.1208459830
-0.1476981612
0.0399524948
-0.0283763490
0.0052701560
-0.0364125312
-0.0385395841
0.2170980492
-0.0931221649
-0.1834433167
0.1465650836
-0.0324006903
0.0516155969
0.0963275916
0.0941636589
0.2010901091
-0.1246915108
0.1455257306
0.0929536667
0.0174719740
-0.0024312001
0.1397291493
-0.0744634226
-0.1126141257
0.1147270328
0.1110490867
-0.0124151396
-0.0077054809
0.1436707150
0.1031533254
-0.1561292777
-0.0838517590
0.1018940628
-0.0766203547
-0.0954646343
-0.1347460446
-0.0004290737
-0.0498409812
-0.0678378249
-0.0173379028
0.0295978477
0.0157766221
-0.0334646441
0.0289606268
-0.0202456820
0.1604900765
-0.1255236134
-0.0357377804
-0.1006033206
-0.0130056001
0.1377230169
0.0856467238
-0.1197672532
0.0126727114
-0.0403421212
0.0587022274
-0.0088196666
0.0729680816
0.1521849371
0.0527499236
0.0128270869
0.0668264702
-0.0440207521
-0.0163260984
-0.0849077428
0.0967534980
0.0498171987
0.1744415122
0.1038081927
-0.0741336545
0.0901405964
0.1316217908
0.0333276667
-0.0290133255
0.0254812652
-0.1837478750
-0.0749410967
0.1123973287
0.1777270862
0.0598654103
0.1117822891
-0.0169930610
0.0164525854
0.0435409151
-0.0313842374
-0.0956447689
0.0346909570
0.0992071907
0.0435129160
0.0677882779
-0.0551830811
-0.0153755948
0.1323741289
0.0313335306
-0.0413604781
0.0076285531
-0.0593345631
0.1014880264
0.0658176037
-0.0348782309
0.0382563805
-0.0652837609
0.0025100379
-0.0709548536
-0.0321728118
0.0456109066
-0.1957191308
-0.1554068908
0.0196220209
0.0423569974
-0.0748450621
-0.0449977575
-0.0883177236
-0.0079846685
-0.0062791445
-0.0942010716
0.1245751463
-0.0671295111
0.0655248265
0.1391251769
-0.0071029858
-0.2202345579
0.0344095030
0.0001922232
-0.0586599878
0.1272480028
-0.1436277205
-0.0080144791
0.0535993438
-0.2072139419
-0.1430878539
0.1471607726
-0.0908572551
-0.0204347222
0.0159133872
-0.0196400425
0.0650376450
-0.1221725190
0.0147984079
-0.1030817661
0.1353072678
0.0839546212
-0.1055697924
0.0824191487
-0.0508887886
0.0680894438
-0.0417176137
-0.0880260858
0.0228193330
0.0719391331
-0.2063178995
-0.1658129538
-0.0472312924
-0.2148615925
-0.2373881840
-0.1786946466
-0.0406966462
-0.1133855096
-0.0278859447
0.1248399648
0.0694279611
0.0096785796
-0.0195140076
0.1209128155
0.2204236807
-0.1930781212
-0.1342760256
-0.1568249462
-0.3140901356
0.0062907071
-0.0499552214
-0.0421615244
-0.0525103481
-0.0078577594
-0.0237271675
0.0034528462
-0.0956159710
-0.2979864310
-0.0702501281
0.0253661868
-0.1764240977
0.0196575132
-0.0293032360
0.2616524486
0.0391251718
-0.0547600286
-0.1865167814
-0.0404824208
-0.2605800391
0.1165403312
-0.0083998393
-0.2976745706
0.0287958101
-0.0775451667
-0.0094303581
-0.0561303627
-0.0190643531
-0.0178917051
0.1305615549
-0.2763274716
-0.0073791365
-0.3192758840
-0.0859301499
-0.1545883858
-0.1507368747
-0.0187651552
-0.1210558877
0.2290926342
0.1310763830
