1919
0.73359979
0.44254870
0.51790289
0.79333898
0.86452803
0.30727337
0.14861352
0.06069061
0.68247989
0.24860376
0.11253827
0.79857511
0.88269172
0.84500388
0.55649484
0.71371158
0.11178719
0.21287025
0.39781102
0.67827667
0.00665030
0.04970983
0.37876581
0.43992051
0.58420688
0.21680178
0.11907630
0.47325965
0.73865811
0.03270198
0.59002737
0.47225790
0.47525068
0.10793026
0.26559688
0.33977871
0.41520362
0.41421039
0.40046932
0.09768352
0.66281416
0.51300759
0.89625862
0.54550588
0.35801147
0.45275346
0.25921746
0.46979866
0.66562371
0.65702847
0.14807532
0.67227402
0.70673830
0.52684113
0.11219453
0.29094518
0.74364292
0.23127083
0.76420483
0.48230103
0.26397280
0.35423220
0.95455893
0.73922348
0.46216245
0.22015580
0.07900219
0.87736608
0.63436620
0.47947151
0.97504959
0.29718035
0.99247910
0.87130821
0.84268623
0.35049057
0.32406167
0.10190369
0.82028923
0.98968538
0.75893216
0.96836455
0.66195940
0.46567046
0.49520569
0.77415393
0.75661564
0.23884860
0.00542476
0.52082047
0.72114963
0.26939757
0.87505267
0.67570856
0.00862104
0.33721512
0.89586436
0.08762323
0.21458120
0.53023056
0.56709474
0.18963079
0.82741091
0.55957384
0.06093900
0.67009714
0.91006441
0.38500068
0.77200083
0.73035364
0.37468606
0.53093299
0.69871820
0.03664546
0.99660345
0.19392388
0.81079940
0.75321909
0.43277248
0.81622416
0.27403956
0.15392211
0.08562172
0.14909223
0.82963067
0.09424277
0.48630736
0.72549503
0.18186600
0.70088856
0.25572559
0.74896074
0.89051935
0.08313651
0.30853457
0.95145835
0.75323365
0.21859899
0.33645903
0.52523448
0.94895263
0.71114509
0.05616747
0.64767082
0.74779055
0.05277092
0.84159471
0.55858995
0.80599001
0.27436719
0.37481410
0.08002957
0.42828930
0.46043583
0.22912180
0.25791998
0.55467859
0.71542916
0.98341501
0.73654459
0.41631772
0.23914060
0.48550532
0.30683707
0.32227711
0.79403990
0.25829542
0.07551076
0.01263888
0.59475445
0.60074524
0.96159151
0.30589954
0.65691271
0.60926234
0.05369010
0.70968363
0.45085704
0.61228004
0.51567364
0.72522423
0.98709415
0.59570322
0.15351354
0.44752997
0.82482502
0.41143352
0.00220856
0.54025418
0.39484853
0.73875315
0.95657190
0.63398913
0.22425847
0.26340896
0.95626624
0.01829837
0.52170438
0.03177700
0.03093725
0.11645884
0.63252224
0.99252877
0.42235838
0.28943494
0.60179111
0.47604847
0.99911857
0.05264815
0.08832852
0.51479222
0.77787238
0.07542266
0.11049543
0.93138592
0.52295264
0.93532045
0.34281944
0.52516120
0.47557463
0.73766797
0.26391435
0.43214653
0.37165710
0.48817283
0.69555550
0.32792333
0.50647119
0.21725988
0.35970033
0.53740845
0.33371872
0.99222257
0.52993721
0.75607709
0.28165751
0.13172832
0.23212557
0.28077608
0.18437647
0.32045408
0.79556830
0.96224886
0.39587675
0.90606373
0.89363478
0.91882938
0.84138418
0.23645422
0.44399059
0.31695882
0.97412219
0.70790494
0.74910535
0.34577928
0.19607776
0.44466085
0.67370261
0.70254896
0.66192073
0.03340294
0.23995740
0.99563945
0.02562551
0.76989462
0.75171654
0.30728302
0.90162294
0.98384211
0.58805910
0.08599941
0.30429619
0.38362740
0.04824826
0.70017294
0.28969113
0.94188304
0.61900232
0.13107532
0.17833726
0.06299291
0.44803414
0.15245945
0.77089785
0.19713949
0.49823873
0.96697561
0.64180034
0.17194134
0.66952457
0.30372107
0.20534429
0.90948197
0.29936051
0.23096980
0.67937659
0.05107706
0.53825282
0.58099953
0.03491916
0.12631192
0.66699894
0.33921535
0.50993932
0.71524721
0.03938829
0.79963046
0.65713025
0.65839061
0.93070577
0.83546751
0.72138352
0.37873991
0.98792696
0.49228136
0.57587940
0.48616569
0.45925697
0.21767973
0.65810704
0.12878154
0.52140080
0.86345133
0.03826351
0.82076131
0.09442113
0.71764010
0.87183837
0.63267395
0.29863963
0.90675753
0.75898587
0.96563857
0.24597289
0.26892519
0.68088577
0.28536118
0.06855565
0.33801602
0.94375179
0.99926142
0.17348354
0.66513531
0.37800133
0.16141050
0.15741667
0.95388073
0.64757619
0.61667364
0.17156046
0.30568323
0.74545518
0.69296126
0.16913455
0.78371868
0.51372257
0.26355568
0.50135878
0.38556094
0.89622963
0.79999841
0.29231848
0.65521550
0.76563698
0.53829137
0.92414069
0.44652276
0.82365254
0.99269634
0.78453878
0.76740433
0.99195776
0.95802232
0.43253964
0.36995910
0.11943282
0.58995631
0.32383983
0.76700901
0.20662995
0.49540029
0.07269223
0.95208512
0.18836155
0.24182679
0.73580381
0.70208412
0.50538247
0.23716259
0.08764506
0.40161210
0.03716100
0.37996354
0.05682760
0.80279798
0.91825490
0.98096829
0.24932074
0.74190745
0.97366463
0.03385952
0.50931178
0.96562239
0.99188183
0.94185142
0.33558149
0.11131465
0.53180773
0.65942131
0.87832366
0.73843767
0.15482160
0.95101589
0.69052280
0.34318314
0.19284268
0.42632660
0.04526726
0.69822515
0.66348919
0.13291232
0.09983725
0.70065019
0.51287586
0.15666484
0.50344817
0.43113076
0.13763313
0.75276890
0.17303821
0.11129775
0.78662842
0.68234999
0.07692014
0.77851025
0.62420141
0.41250163
0.88982490
0.15600914
0.07192294
0.76814856
0.89444681
0.22674454
0.71916445
0.58496961
0.56992768
0.91200713
0.01129621
0.61519494
0.61023227
0.67478539
0.74810727
0.71006952
0.37543558
0.26098312
0.86673436
0.87888375
0.69211389
0.00436749
0.63165265
0.86515209
0.11566524
0.41828107
0.54750208
0.19258538
0.19679133
0.17170349
0.60508701
0.08661623
0.32771263
0.67700995
0.85476479
0.22215944
0.90375449
0.57392923
0.80712904
0.47368217
0.48593636
0.81842525
0.08887711
0.09616863
0.49321064
0.83698438
0.80623815
0.86864623
0.09796750
0.67297251
0.74752997
0.79008139
0.67734000
0.37918263
0.65523348
0.79300523
0.79746370
0.20273556
0.98559061
0.99425502
0.37443906
0.59067762
0.08087125
0.70215168
0.26768757
0.93563604
0.92431112
0.17144206
0.50956527
0.73144017
0.64512423
0.99550163
0.54986542
0.73400134
0.09167026
0.04307606
0.57098572
0.89790842
0.91172229
0.66895322
0.57088093
0.65925226
0.45903461
0.24822092
0.03843489
0.11426809
0.04122616
0.83589858
0.31700366
0.02681677
0.83015361
0.69144271
0.61749439
0.91102486
0.39359440
0.88518196
0.84666090
0.31790552
0.05662401
0.35622617
0.04934568
0.70174824
0.35172781
0.59921110
0.43574958
0.44339807
0.64228716
0.00673530
0.34130649
0.55400945
0.67568852
0.91218741
0.21326171
0.13472313
0.16040833
0.25169660
0.24899123
0.20163449
0.08759518
0.56599488
0.22845126
0.91774879
0.25743759
0.84594565
0.82877365
0.65103199
0.73112760
0.67543455
0.96893751
0.78775161
0.03166072
0.01828319
0.48949985
0.38338853
0.61749429
0.92524942
0.82678660
0.25978146
0.93198472
0.16809308
0.81379091
0.60767324
0.08028049
0.02705261
0.74239637
0.24068883
0.27874921
0.99138760
0.44232332
0.36634439
0.55738248
0.67077458
0.28409318
0.81482007
0.51672022
0.11286683
0.46585206
0.24784782
0.78830137
0.43478957
0.03559943
0.81996209
0.45307277
0.52509928
0.20335062
0.07056706
0.45034870
0.03013722
0.33034852
0.38233342
0.19823030
0.14413942
0.99000666
0.27851080
0.17119204
0.73240303
0.51919963
0.44994125
0.72379063
0.96152295
0.81628563
0.28117310
0.63229753
0.10037881
0.09599318
0.14901775
0.21324564
0.56184524
0.39686557
0.00154701
0.99663481
0.43246501
0.82150910
0.44970758
0.95756429
0.02485972
0.52027464
0.40791299
0.05499694
0.85062316
0.79024641
0.25322724
0.99476258
0.78025307
0.53173804
0.16595461
0.51265610
0.05093767
0.61589586
0.23644673
0.01246061
0.43218149
0.51761983
0.64475814
0.53256030
0.61361301
0.79377589
0.74580594
0.17545825
0.19064146
0.74735295
0.17209306
0.62310646
0.56886205
0.62180064
0.58067075
0.59372177
0.14207528
0.98858374
0.64871872
0.99269844
0.77883014
0.90194596
0.98746101
0.55908321
0.43368400
0.15341562
0.07173931
0.48462167
0.76931148
0.30818604
0.49708228
0.20149297
0.82580587
0.14184042
0.73405327
0.43941888
0.93561630
0.47985921
0.61487713
0.12625776
0.22721215
0.78697019
0.74936422
0.79607420
0.40877083
0.33003497
0.38979597
0.55084611
0.31861870
0.03851469
0.54354455
0.09744885
0.94046065
0.53100556
0.65653206
0.37414465
0.68442118
0.72827138
0.85876632
0.45373266
0.03645742
0.35584860
0.65522563
0.86226329
0.49768901
0.38927891
0.30168217
0.43330532
0.86913812
0.91655930
0.55956307
0.09635027
0.70352950
0.30892730
0.89242447
0.11230033
0.63896227
0.28222044
0.66314644
0.95758097
0.32073513
0.20669099
0.05502982
0.26119578
0.73769655
0.71156188
0.63534043
0.42211773
0.43983326
0.49410675
0.87585039
0.47629068
0.84995535
0.53107602
0.33855397
0.34764436
0.92035493
0.64023614
0.78094968
0.78949305
0.55679545
0.34051275
0.88584332
0.26032494
0.64944005
0.77826779
0.37262527
0.28840231
0.06048823
0.03577171
0.24598328
0.38122336
0.24246270
0.30101310
0.64241915
0.98015925
0.01257498
0.27775958
0.40227698
0.45240824
0.77186633
0.27812737
0.92869892
0.62182168
0.80920339
0.26725289
0.96946604
0.72955832
0.90748903
0.75041572
0.51905137
0.46428448
0.09092847
0.40489469
0.72460942
0.74036852
0.18316247
0.09723469
0.02877083
0.24365070
0.13300640
0.27475411
0.62487406
0.37546910
0.57576721
0.26729321
0.35562835
0.58834220
0.54505280
0.75790533
0.04075044
0.31691913
0.03603269
0.96944936
0.93874081
0.84523608
0.23670224
0.90820685
0.57479441
0.14419127
0.65862257
0.09384577
0.60847575
0.74955104
0.49874046
0.33308516
0.48991956
0.68190293
0.43031985
0.51869038
0.92555363
0.56332625
0.79344450
0.55042770
0.93879536
0.36921171
0.81772091
0.29442371
0.95755391
0.36277371
0.05232903
0.99830435
0.67969284
0.08836172
0.96775370
0.61843365
0.93359781
0.20445595
0.52664050
0.50839221
0.34864722
0.18526307
0.60223799
0.95712296
0.93481411
0.10097845
0.29020813
0.42473367
0.78288138
0.72052798
0.94342405
0.70843501
0.28385424
0.73686855
0.25886271
0.22264959
0.10608026
0.07658362
0.51707330
0.06363417
0.43935732
0.56940233
0.06193852
0.11905016
0.65776405
0.02969222
0.73748381
0.59136186
0.23414817
0.26412431
0.09975407
0.58279539
0.44938738
0.70199205
0.53991835
0.38420150
0.80297050
0.83012648
0.80893517
0.58585188
0.55065446
0.75235922
0.29428689
0.83450869
0.48922777
0.55314959
0.05715829
0.59530804
0.62973321
0.57423159
0.65894221
0.06909053
0.14363392
0.72088073
0.18814069
0.80139797
0.75057295
0.92562450
0.39275983
0.98472112
0.18974881
0.49251390
0.56751650
0.63913619
0.19450595
0.10743485
0.02333769
0.99747645
0.93756133
0.83227285
0.58332833
0.48821579
0.58463208
0.87761522
0.32272448
0.07385985
0.43076481
0.37988277
0.66916788
0.06049802
0.95411436
0.32811009
0.12958855
0.09774827
0.04899082
0.31772924
0.89914624
0.79956376
0.24335374
0.29190607
0.78428488
0.43310254
0.78441997
0.35180138
0.07223873
0.97892593
0.45923624
0.09557642
0.97640238
0.39679757
0.92784927
0.55973071
0.88501336
0.51248135
0.43734593
0.20773784
0.58634120
0.86811074
0.58762061
0.25550908
0.92860875
0.54173497
0.58361917
0.05819730
0.63948324
0.63260999
0.37592654
0.53862948
0.43217375
0.61928028
0.83053555
0.21645863
0.05238282
0.61495553
0.56826001
0.12462155
0.59388145
0.02749625
0.22019797
0.57028383
0.42429382
0.14804724
0.13001454
0.30930718
0.66052858
0.56736046
0.51704502
0.24686978
0.43547120
0.10466563
0.50237886
0.36407995
0.64640060
0.08599803
0.42227726
0.28588384
0.71860802
0.79820380
0.82451332
0.15078177
0.41748407
0.65504887
0.36724040
0.46986689
0.27000440
0.93550042
0.59448844
0.86388585
0.96299667
0.81468641
0.43416968
0.38729049
0.96273364
0.56418422
0.69659767
0.62326223
0.13154468
0.21364268
0.87013201
0.56701588
0.31830831
0.37251086
0.93109584
0.96470891
0.45850890
0.35337309
0.25059275
0.17711692
0.15157689
0.07510607
0.32789869
0.56906096
0.73015495
0.69513909
0.03892785
0.00015935
0.63063951
0.63341629
0.86404520
0.59363618
0.44810269
0.29821488
0.98092667
0.41083634
0.86239909
0.67752433
0.03409856
0.99394378
0.89116702
0.90423057
0.56095966
0.20947533
0.27674143
0.49205549
0.17418425
0.73525033
0.84542858
0.42477700
0.91236724
0.99700547
0.49988307
0.24026593
0.56606643
0.23003801
0.93540502
0.60499428
0.23019736
0.56604453
0.23841056
0.09424256
0.15968071
0.68651326
0.39245743
0.14060738
0.09734960
0.25485653
0.81813171
0.13144816
0.24880030
0.70929873
0.03567873
0.80975996
0.91877406
0.31242016
0.30181545
0.09295831
0.04767049
0.14724403
0.51773531
0.96003773
0.14424950
0.01761837
0.20030366
0.71031593
0.24765639
0.13570869
0.31531020
0.47785375
0.70175322
0.55372077
0.57209631
0.86143393
0.24023402
0.96455374
0.00204132
0.33758362
0.21941026
0.82017303
0.46903178
0.46821056
0.52947176
0.50471051
0.27797052
0.44824583
0.81713067
0.57978597
0.54120413
0.86480116
0.72703000
0.05893944
0.82483889
0.87127950
0.07655781
0.02514255
0.58159542
0.32421420
0.16085124
0.89690562
0.80206795
0.86260446
0.45062639
0.37416426
0.72403840
0.69086041
0.33871799
0.72607971
0.02844403
0.55812826
0.54625274
0.49747581
0.02633882
0.07572450
0.00218632
0.30430934
0.52397033
0.81931698
0.88409531
0.06517446
0.68411814
0.61112530
0.12411390
0.50895703
0.48240480
0.20067172
0.53409958
0.06400022
0.52488592
0.69495082
0.96090584
0.32695387
0.55755528
0.41153223
0.70111813
0.28159368
0.10239264
0.03983612
0.00767339
0.13083667
0.59796438
0.55392613
0.62831248
0.62430320
0.62965064
0.63049880
0.92861253
0.15362097
0.44981578
0.81270784
0.21879543
0.13393392
0.42383314
0.34290933
0.64289095
0.90623794
0.54358105
0.17699053
0.97023816
0.06846697
0.87194135
0.93114400
0.39542084
0.42949663
0.34267623
0.09653897
0.71109031
0.44506887
0.13637509
0.71876371
0.57590555
0.73433947
0.27268984
0.20421803
0.35864267
0.90234048
0.83471683
0.28725520
0.05596145
0.28453261
0.09996304
0.27475688
0.41846653
0.52379618
0.61766621
0.06135748
0.43003412
0.16124726
0.23834801
0.40027228
0.22971424
0.11028936
0.33141628
0.62513508
0.53978600
0.67409252
0.72167405
0.25087631
0.11916139
0.85804914
0.96964002
0.69506694
0.59238861
0.24232986
0.89928496
0.95103128
0.14467034
0.73400179
0.23828648
0.20063179
0.01853440
0.33824951
0.47538866
0.43700093
0.86204569
0.09305487
0.49835842
0.29207981
0.25430214
0.73670643
0.69235209
0.48401637
0.84699579
0.02376837
0.10915145
0.38678179
0.69786089
0.83082550
0.63765810
0.81702228
0.68887465
0.60729812
0.51208921
0.28126326
0.84962798
0.41137418
0.23229453
0.99429832
0.14537597
0.47058101
0.19493011
0.16391037
0.80883053
0.67031877
0.60091130
0.67087622
0.76337364
0.09926972
0.96295603
0.01767578
0.83597615
0.65530812
0.50169215
0.68297194
0.67907650
0.61084360
0.06975373
0.37693738
0.44166910
0.70741183
0.19395966
0.13054375
0.31470996
0.70604887
0.41180701
0.16433794
0.11742305
0.64410154
0.15863626
0.26279902
0.11468255
0.35356637
0.42670938
0.92351308
0.02388514
0.02762069
0.59438930
0.78725878
0.12689041
0.55734533
0.80493456
0.96286656
0.21265346
0.30662671
0.64583850
0.89172995
0.91747031
0.71559223
0.26866733
0.35913941
0.42300406
0.46262699
0.48968316
0.73771402
0.16867587
0.90149017
0.90205196
0.28609891
0.54559171
0.06068822
0.54889793
0.66027426
0.41425460
0.97560731
0.58378734
0.43813974
0.00322800
0.17817664
0.22539852
0.13011841
0.73552197
0.03033308
0.09298497
0.94817543
0.33695979
0.73882346
0.83990538
0.25443010
0.45441569
0.10857272
0.61356952
0.87741976
0.57119971
0.10325268
0.61513378
0.73987557
0.00474284
0.51718574
0.02597449
0.55033455
0.57787397
0.57487242
0.21060882
0.99212856
0.55047973
0.79439616
0.43026830
0.55370773
0.97257280
0.65566682
0.68382614
0.70809477
0.68599991
0.77681110
0.65627020
0.02295970
0.51563457
0.49617559
0.27738980
0.97005026
0.60474830
0.89095932
0.84747002
0.17594801
0.99421200
0.46260380
0.91582359
0.99895484
0.97978954
0.94179807
0.54928939
0.55766350
0.51667049
0.75989821
0.54979206
0.06715022
0.55429437
0.98006036
0.62085795
0.52686717
0.63572719
0.30468409
0.23496194
0.32172709
0.08149519
0.89123215
0.34468679
0.59712976
0.38740773
0.62207659
0.56718002
0.99215603
0.51303591
0.41465003
0.16810405
0.50724791
0.87725383
0.08392763
0.50620274
0.85704337
0.02572571
0.05549214
0.41470687
0.54239620
0.81539035
0.96449893
0.60954642
0.36968472
0.94455929
0.23040437
0.89655188
0.58028648
0.53508845
0.13151382
0.90201357
0.61658364
0.02274597
0.24670036
0.21371340
0.41015370
0.86877696
0.78089342
0.40230974
0.38181286
0.19554345
0.57041378
0.88906077
0.07279728
0.65434142
0.39526351
0.92984065
0.68006712
0.45075565
0.34454752
0.22246332
0.26614600
0.30904645
0.83200974
0.63583072
0.25360574
0.06241411
0.53238260
0.83389222
0.59750256
0.66389642
0.73590580
0.21408620
0.68664239
0.98260616
0.42779961
0.09679610
0.85138311
0.20869302
0.49910583
0.23319598
0.40423648
0.06951962
0.12225675
0.47703376
0.72386104
0.51752026
0.40687441
0.40392816
0.96827591
0.75142193
0.62639148
0.23442191
0.06046838
0.45840122
0.87025263
0.31407413
0.52081533
0.40263523
0.14796635
0.11831788
0.06653165
0.88387215
0.33240409
0.75317405
0.86647830
0.76020369
0.84997014
0.71786142
0.96889672
0.34907598
0.95105739
0.37313319
0.41859559
0.07331414
0.85016695
0.14245663
0.59083440
0.25704137
0.54638479
0.55911032
0.00846330
0.17277627
0.79353223
0.06893168
0.63117749
0.66378486
0.38300580
0.15199281
0.06642009
0.53097215
0.27031070
0.13295174
0.41484430
0.60271478
0.88612578
0.28132260
0.36291848
0.73609593
0.99918402
0.33181519
0.08517190
0.95024141
0.70494839
0.50376750
0.02355555
0.55511534
0.64622413
0.61438996
0.81215671
0.19260891
0.17350027
0.82062000
0.36538518
0.96703251
0.88955168
0.99656267
0.63081737
0.27255748
0.14855548
0.69723745
0.80352963
0.41886618
0.83018919
0.21837393
0.02158096
0.71631498
0.49969653
0.38449944
0.45241090
0.49888055
0.71631464
0.53758280
0.44912196
0.42126302
0.04135030
0.47267752
0.97637836
0.68757443
0.08706747
0.78853506
0.88018334
0.26056775
0.60915507
0.24556852
0.22760025
0.49870674
0.24213119
0.85841762
0.77126422
0.39068668
0.55565507
0.57479385
0.80955286
0.38584426
0.79316778
0.83113382
0.10215924
0.29286431
0.21563326
0.55457014
0.79174486
0.93194790
0.09215294
0.24086682
0.35321092
0.13350324
0.71354434
0.32958928
0.82107767
0.80061181
0.11812434
0.70126101
0.06117956
0.72727941
0.94682953
0.28877981
0.22598615
0.18896072
0.14719742
0.99725038
0.57964740
0.70285249
0.57204423
0.38920025
0.08869676
0.36521201
0.22033407
0.19085600
0.65807633
0.43596734
0.74542614
0.44982119
0.36791523
0.83757908
0.69068801
0.72112615
0.97108233
0.40423234
0.05071543
0.79216000
0.20484415
0.16883977
0.49342101
0.26602370
0.89611918
0.44025054
0.55480351
0.12210533
0.62921126
0.70200093
0.11935571
0.20885866
0.40485343
0.69139994
0.59805891
0.49355019
0.05661195
0.81839299
0.68440618
0.71468828
0.25436032
0.42983232
0.16450946
0.62227556
0.26741140
0.85519747
0.34340171
0.23849372
0.25942981
0.39411714
0.03065372
0.46427395
0.56295691
0.52407473
0.73029766
0.45907610
0.96432527
0.28510117
0.58118143
0.59353653
0.98710210
0.70053714
0.80239519
0.39195553
0.39193708
0.40045410
0.88550572
0.44854903
0.21884709
0.56991190
0.16323730
0.47320741
0.99974421
0.32774676
0.09548297
0.26715561
0.18294423
0.43888468
0.50564934
0.44237403
0.83300182
0.53630306
0.90664799
0.39595873
0.06037779
0.63694564
0.85503483
0.02470305
0.92204681
0.43621626
0.61823958
0.90914891
0.13675339
0.42063477
0.30110444
0.52869047
0.82108887
0.18661016
0.97723950
0.03993596
0.75652205
0.14047680
0.51314337
0.75626627
0.46822356
0.60862634
0.02342188
0.65116779
0.04751103
0.52907122
0.09354183
0.88051285
0.06537428
0.00018982
0.27647158
0.12575206
0.63713546
0.13150641
0.15045512
0.55918227
0.56772267
0.76869470
0.46833118
0.70447606
0.18932947
0.76943562
0.23316653
0.01041834
0.95604578
0.21040603
0.05035430
0.71256783
0.35088283
0.56349767
0.46883410
0.81910640
0.17212402
0.49225597
0.47027419
0.21963504
0.02132719
0.56381602
0.10014789
0.08670147
0.56400583
0.37661947
0.21245353
0.20114129
0.50812588
0.36290864
0.76032357
0.07584855
0.13160334
0.22865475
0.78032461
0.32093281
0.99809037
0.01349114
0.33135115
0.95413615
0.22389717
0.38170544
0.66670398
0.57478000
0.94520312
0.13553807
0.39388640
0.11732713
0.62779405
0.86416058
0.33696218
0.64912124
0.42797660
0.43711007
0.73582270
0.99198243
0.81372954
0.94827623
0.19312373
0.32185541
0.31118488
0.95344730
0.39770396
0.44278822
0.18210204
0.17802857
0.76372102
0.18019242
0.19151971
0.09507217
0.13432856
0.41541688
0.47677762
0.80103254
0.99019688
0.42198073
0.93657062
0.38408327
0.53930787
0.56436467
0.24824386
0.87627005
0.21348590
0.67622046
0.31338011
0.94930861
0.66820289
0.12710965
0.89758484
0.86132662
0.44896506
0.20876971
0.81477392
0.84666902
0.65155793
0.99687596
0.02469759
0.41527896
0.17706838
0.21621729
0.51035113
0.31139694
0.63163417
0.98712874
0.11242948
0.62183105
0.40910948
0.04900010
0.00591432
0.94841734
0.61336477
0.25415818
0.82468739
0.82685067
0.93037863
0.13806750
0.77615928
0.59858153
0.26517714
0.67374412
0.45990815
0.71414220
0.88251383
0.27468206
0.56081122
0.53407176
0.27155803
0.58550881
0.94935072
0.44862640
0.80172610
0.45970185
0.76002334
0.43336027
0.44683059
0.87245283
0.05519132
0.85594006
0.92145293
0.06110563
0.80435741
0.53481770
0.31526381
0.62904480
0.36166837
0.24564244
0.76711230
0.13782765
0.84422397
0.03228944
0.81157176
0.30413211
0.74643164
0.69408560
0.57881418
0.30724287
0.22815736
0.85037220
0.89275168
0.17750808
0.29899860
0.69447778
0.63720992
0.05902195
0.12783805
0.08404051
0.93147478
0.18302936
0.93998058
0.85292771
0.24413500
0.74433799
0.38774540
0.55939881
0.37338278
0.74941377
0.80504125
0.14049508
0.88724142
0.64926522
0.17278452
0.69881318
0.95339733
0.91921616
0.39289877
0.53221151
0.22645903
0.62105613
0.38258371
0.11921071
0.79856421
0.68158231
0.81368849
0.43577413
0.74060426
0.94152654
0.51981465
0.67207904
