131
0.8107406800
0.6367366400
0.7501166200
0.5219342500
0.8478297200
0.9595341800
-0.0496727356
1.2155433143
-0.2637980840
0.4361859600
0.5646286000
-0.4889265309
1.6033793695
-0.8394829110
0.4078905400
0.9518456700
0.6148753706
-0.9405208321
0.0354578739
0.0790787200
0.8270072800
0.5745691100
0.1608047000
0.1160617300
0.2653182400
0.2772879600
0.8915580200
0.6951382700
0.6070116300
0.9110235100
-0.0056188700
-1.8171308517
-0.9890822045
-1.0847698105
0.9396865600
0.2738056300
-0.9990574049
-1.6007068026
-1.6627756052
0.6650336100
-0.1702174000
-1.7216747818
-0.4401108998
-0.3794355897
0.2858478100
0.5725289900
0.0366458900
0.1466353500
0.7925833300
0.2265822600
0.4447604050
0.6234004850
0.7813796250
0.3286685650
0.6369431100
0.1201054650
0.0182981850
-1.0735714172
-0.2555496366
1.8267799176
-0.2089384385
0.3559875950
0.3012883250
0.0015511664
0.0004067478
0.0001492316
-0.0019874926
0.4696797550
0.0524492850
-0.0015060769
0.0014859532
-0.0041591115
-0.0030179107
0.5568901650
0.3668167950
0.2934095137
-0.4847655649
0.6431323127
1.7043413416
0.4556879100
0.4774281350
0.2983551850
0.5660636300
0.8963267650
0.5649322550
0.3301814650
0.9766631900
0.5348554100
0.6350133000
0.7382710600
0.8056737700
-0.7387652000
2.3648398055
1.3630875476
1.5199122930
0.2480037500
-0.6183234400
1.3003895212
2.2062724026
2.3243718031
0.1124690700
0.4685305400
2.2407195273
0.6062950695
0.5320425318
0.2058721000
0.0509822100
0.9760129100
0.0883320500
0.3097980400
0.6285729000
914951.8121645225
28562176.9680316672
-393128845.8102940321
89195649.6542136818
1254657.9514014677
43909418.6592159942
237780540.0837229192
10323687.9814162757
691631.3081511611
79727464.8989573866
344402376.7523762584
-785262746.1626931429
1189717.4316068923
16782947.8519712314
64481705.3488574773
-226755867.2475353777
2460361.9344817298
-654707402.8020772934
151278835.5140101016
0.2216961200
