131
0.81074068
0.63673664
0.75011662
0.52193425
0.84782972
0.95953418
0.90859877
0.49447021
0.54324938
0.43618596
0.56462860
0.49960483
0.80032895
0.83115913
0.40789054
0.95184567
0.86078754
0.22005434
0.18993637
0.07907872
0.82700728
0.57456911
0.16080470
0.11606173
0.26531824
0.27728796
0.89155802
0.69513827
0.60701163
0.91102351
0.41213344
0.41775231
0.54776015
0.16225005
0.93968656
0.39558987
0.12178424
0.84828532
0.89006008
0.66503361
0.28447128
0.45468868
0.16463844
0.08480023
0.28584781
0.57252899
0.03664589
0.14663535
0.79258333
0.22658226
0.22571408
0.61959061
0.80115137
0.38651877
0.73565235
0.06646961
0.66380673
0.62721036
0.76160788
0.27081836
0.53823387
0.17374132
0.68857067
0.08599402
0.33599137
0.62825723
0.48158390
0.45777561
0.47654255
0.37164398
0.12280922
0.76101383
0.82633266
0.28744767
0.84581406
0.11218047
0.85997666
0.88245995
0.25881583
0.65255999
0.10904221
0.48452990
0.27215060
0.91019358
0.87104868
0.00780294
0.97666319
0.53485541
0.63501330
0.73827106
0.80567377
0.17324718
0.91201238
0.49424444
0.25924120
0.24800375
0.12250166
0.74082510
0.70577936
0.59904422
0.11246907
0.82858858
0.36005804
0.93880174
0.11603625
0.20587210
0.05098221
0.97601291
0.08833205
0.30979804
0.62857290
0.19737426
0.79432794
0.90072350
0.10756784
0.66537662
0.90852644
0.08423103
0.20023203
0.54353974
0.82250209
0.00590580
0.71678692
0.73451447
0.50015024
0.97602812
0.98251823
0.62265190
0.71685321
0.68829759
0.22169612
