11948
0.40263078
0.91765299
0.39451070
0.77967476
0.03567372
0.37716875
0.85951888
0.94305409
0.38775049
0.45194761
0.68145043
0.29546062
0.16213258
0.25943886
0.97137602
0.99511646
0.06544189
0.49891554
0.29442257
0.31523616
0.69502905
0.07842241
0.05096540
0.26014695
0.07650801
0.66840650
0.99388500
0.18210583
0.72327060
0.46769807
0.56212501
0.12590138
0.38535106
0.95663571
0.90557613
0.42102478
0.33380446
0.76509502
0.36407887
0.72155495
0.21704263
0.04552929
0.01701556
0.37917521
0.30496816
0.98839159
0.37429167
0.37041005
0.48730712
0.66871424
0.68564621
0.18233617
0.74713665
0.73661161
0.44248312
0.82364466
0.40501812
0.43636812
0.00575049
0.12828872
0.90406620
0.56787550
0.25419009
0.28941726
0.52451121
0.15976623
0.71044204
0.85831566
0.92486125
0.07452090
0.57987061
0.14190388
0.12005020
0.59688617
0.52107909
0.42501835
0.58527776
0.89537076
0.79542840
0.07258488
0.56408500
0.48107461
0.25492105
0.31122166
0.21768622
0.69740418
0.13486632
0.62270434
0.13377230
0.14061681
0.75099305
0.03783850
0.70849231
0.00518315
0.32725576
0.23300351
0.16494938
0.03769779
0.09131918
0.08981062
0.11221869
0.67118979
0.23171450
0.23226889
0.26807596
0.75279359
0.65728724
0.85335372
0.64816435
0.45271565
0.92593860
0.21224936
0.93379026
0.18085966
0.52347102
0.15147648
0.87826383
0.65833733
0.77418082
0.01203613
0.79895414
0.52517387
0.04987463
0.50744644
0.53035702
0.37713039
0.74044996
0.69530640
0.41482818
0.83176914
0.78511702
0.52704687
0.50295892
0.01683152
0.75931576
0.77103488
0.76962512
0.41660300
0.62438860
0.41778947
0.86931865
0.55032720
0.63003883
0.80310891
0.73118686
0.15350984
0.95458539
0.60945069
0.81184717
0.72876621
0.62148683
0.61080131
0.25394008
0.67136146
0.11824775
0.78429710
0.04849184
0.85869771
0.47960350
0.46332002
0.69046685
0.26472052
0.99036689
0.19342577
0.28155204
0.74968265
0.96446065
0.05117716
0.16628566
0.58884926
0.46896662
0.03560431
0.13917646
0.09900545
0.83871322
0.87036332
0.25251529
0.79329860
0.47981402
0.06436246
0.52206481
0.10130084
0.67516378
0.77600489
0.77266230
0.79341153
0.56030198
0.82115414
0.65210924
0.03990548
0.28447416
0.34257609
0.30462600
0.27484106
0.53600186
0.58617804
0.02452371
0.50046252
0.63735519
0.19080937
0.08931177
0.10632182
0.22641368
0.22848823
0.20532727
0.06512689
0.09885155
0.45784256
0.85842549
0.57866557
0.52220502
0.38049030
0.67996641
0.19736880
0.15649519
0.45262871
0.99078033
0.71679717
0.27378285
0.64288957
0.75670265
0.55825701
0.98546566
0.06132864
0.83309807
0.52146752
0.64750668
0.85762178
0.02193004
0.28486187
0.04843114
0.11124181
0.39118369
0.27484482
0.33973004
0.59651095
0.33997171
0.43858160
0.05435351
0.19839721
0.01724717
0.57655853
0.57888751
0.69721358
0.77392732
0.73538269
0.14984229
0.76470765
0.45217986
0.42362514
0.40759722
0.20888251
0.98188215
0.39306288
0.27021115
0.81498021
0.91453041
0.91771783
0.67260199
0.93646045
0.20257970
0.72103313
0.04770226
0.59376339
0.99587795
0.38743231
0.19027434
0.33584967
0.82601391
0.24462784
0.53424687
0.84326107
0.82118637
0.11313438
0.54047465
0.59511369
0.84851707
0.69031694
0.35982134
0.30069694
0.11394207
0.76741857
0.50957945
0.09582422
0.16048145
0.77979060
0.91080443
0.07501186
0.69750843
0.58340642
0.01147231
0.90008813
0.30443955
0.05917457
0.49385151
0.30031750
0.44660687
0.68412585
0.63616716
0.27262078
0.92875369
0.17041404
0.11588185
0.74994006
0.28354842
0.65635650
0.34505375
0.13206549
0.34667344
0.70487510
0.43276243
0.46061551
0.47229366
0.94234187
0.55643973
0.63277511
0.72213247
0.46724416
0.70778697
0.41964090
0.05065058
0.71925928
0.31972903
0.35509012
0.77843384
0.81358054
0.65540762
0.22504072
0.49770639
0.29157479
0.49766149
0.42646008
0.46198882
0.61354334
0.17640014
0.74553724
0.26989985
0.52145389
0.87760273
0.61657329
0.22632899
0.31036515
0.07718880
0.69862266
0.25270702
0.63362853
0.33139777
0.97483949
0.10087269
0.03918474
0.39448039
0.15152326
0.75844401
0.71420942
0.50661339
0.53687786
0.52778996
0.16202101
0.76191857
0.02549635
0.45359579
0.25958007
0.45195643
0.91558462
0.87312341
0.62835657
0.66112186
0.14302326
0.14981046
0.53872458
0.75959654
0.37613945
0.84908974
0.83678534
0.07476211
0.10179676
0.47041387
0.40615988
0.07663625
0.57128656
0.44534461
0.47111664
0.72280982
0.20378863
0.18532606
0.22942320
0.74066649
0.71311602
0.39144421
0.50258506
0.73861236
0.84504000
0.76216513
0.19056879
0.76062462
0.63528854
0.81892535
0.42174648
0.77831179
0.96873581
0.96047106
0.53790834
0.34487527
0.80956080
0.37469368
0.41963737
0.91135756
0.84510755
0.82579725
0.98799381
0.41639410
0.27114186
0.45911046
0.13920392
0.47493049
0.64443652
0.36862712
0.21559698
0.35755253
0.76007133
0.71818204
0.09616489
0.60511134
0.48034717
0.28673368
0.36573596
0.11563571
0.10565903
0.78748243
0.89394750
0.07439485
0.74795349
0.43185584
0.41927011
0.55751429
0.80654952
0.83890749
0.46887185
0.65165706
0.66470474
0.45686566
0.06805116
0.93584660
0.91597611
0.20725508
0.41077709
0.56041263
0.57588221
0.62637408
0.91796516
0.33595354
0.34455612
0.01413005
0.94106488
0.82490329
0.30086373
0.30680083
0.94053899
0.40652276
0.09428327
0.83448649
0.48091761
0.84223676
0.26634233
0.90018772
0.39975105
0.07289185
0.73909521
0.86862290
0.72454891
0.40379994
0.32548855
0.79260007
0.33964654
0.24146467
0.99985515
0.75042364
0.80187729
0.57573736
0.37679772
0.71984245
0.91169090
0.72135383
0.73397251
0.85275577
0.54625712
0.03483624
0.15955661
0.48679611
0.44135900
0.25383987
0.32128261
0.92227661
0.09607664
0.58762494
0.82246433
0.49582768
0.66051678
0.56155954
0.36445058
0.38506569
0.96535948
0.68993913
0.17766576
0.30500603
0.93140380
0.17752091
0.05542967
0.73328109
0.75325827
0.43222738
0.45312355
0.66494916
0.15358122
0.18709605
0.51770494
0.69983834
0.22193229
0.67726154
0.18663445
0.66329129
0.93110142
0.50791705
0.58556790
0.02717805
0.09554199
0.40803224
0.52300574
0.75605877
0.96959178
0.88745632
0.14112446
0.93495126
0.57739545
0.31879022
0.23995729
0.50879925
0.49631113
0.29538696
0.24208035
0.24956939
0.72761434
0.69520389
0.91451856
0.88119555
0.88229995
0.43222349
0.58103389
0.10423224
0.10948503
0.76766834
0.76752353
0.04058645
0.27558539
0.35309143
0.06776450
0.37112738
0.76112367
0.59077024
0.12718615
0.73071545
0.47822656
0.26831061
0.66566671
0.05562201
0.58710083
0.90562399
0.56442126
0.08341195
0.20101095
0.80650161
0.33298135
0.92862529
0.50170550
0.24749990
0.80982084
0.38400545
0.67972339
0.39085473
0.48823769
0.78920843
0.15852307
0.25576122
0.82979488
0.43410845
0.60885265
0.89755938
0.80523583
0.36997632
0.48832962
0.93242198
0.10069176
0.96655618
0.20073259
0.76635847
0.02217819
0.78783342
0.67198246
0.58659945
0.87124537
0.87299341
0.39310106
0.20422672
0.80161870
0.89480657
0.45172662
0.61143954
0.27881202
0.13145001
0.00229427
0.76704970
0.92065844
0.16081733
0.02281092
0.75045332
0.59492579
0.63166357
0.64801270
0.40016162
0.00163988
0.13634232
0.33258360
0.10233165
0.10289850
0.53331619
0.86869011
0.12507669
0.32114961
0.54067257
0.71167614
0.19239498
0.41366598
0.10477720
0.39662169
0.21528468
0.99958377
0.84834831
0.82672422
0.27839579
0.97979832
0.82901848
0.04544549
0.90045676
0.98983582
0.06825641
0.65091008
0.58476161
0.69991998
0.29892277
0.98492323
0.70155986
0.43526509
0.31750683
0.80389151
0.53816358
0.85082302
0.67258162
0.66324027
0.17197263
0.21325420
0.37491641
0.36436761
0.62692018
0.47969361
0.76098930
0.84220486
0.47927739
0.60933761
0.66892907
0.75767318
0.58913594
0.49794756
0.80311867
0.48959270
0.48778338
0.87137508
0.14050277
0.07254498
0.57129506
0.43942554
0.05746821
0.27285493
0.87469063
0.37497503
0.07674644
0.41285421
0.22579805
0.74932806
0.07609448
0.39777068
0.96258226
0.45101089
0.76213829
0.58950243
0.93070450
0.52312759
0.43170729
0.40998189
0.13246520
0.10063637
0.16765507
0.72160114
0.59858392
0.97077374
0.21119383
0.08636730
0.84214882
0.35169661
0.15891228
0.41344388
0.79112215
0.21638049
0.68629881
0.66581277
0.59135552
0.76304525
0.07866698
0.81715358
0.51237331
0.15476146
0.21492426
0.47495557
0.60577235
0.97706255
0.06445800
0.53647685
0.50019014
0.49616530
0.94645874
0.63265534
0.59680166
0.11411381
0.35425648
0.19538559
0.08488754
0.56545031
0.28175289
0.92703636
0.91714692
0.44066517
0.34048024
0.70826907
0.65704566
0.02677906
0.37408184
0.24840118
0.78982431
0.45274882
0.06555476
0.30219762
0.60751028
0.28047902
0.77715319
0.21328264
0.25754157
0.84161119
0.74975949
0.75773170
0.33777649
0.69621823
0.39038704
0.93457816
0.81033204
0.74464352
0.12996374
0.89521958
0.31009384
0.41171663
0.82225595
0.22724076
0.85238180
0.16273619
0.93550982
0.50942746
0.18951525
0.30959166
0.75782864
0.97933956
0.76234048
0.82338340
0.28153718
0.36985077
0.10386242
0.05869037
0.58313340
0.36140398
0.90030156
0.33289289
0.11913569
0.23807805
0.02911112
0.50952273
0.17265621
0.83944317
0.25416626
0.30261995
0.73466275
0.56426010
0.71433658
0.55691870
0.79150085
0.56671838
0.71965489
0.72701068
0.07614584
0.90917014
0.03660234
0.83397449
0.88850969
0.79894282
0.65735788
0.17004687
0.16879359
0.76122030
0.22873724
0.75192699
0.12262428
0.12903880
0.08481988
0.24175997
0.36711685
0.11393100
0.75128270
0.53977306
0.95337417
0.00544896
0.84239301
0.68803692
0.56970906
0.55672960
0.24495562
0.36120991
0.12344798
0.96461051
0.08822058
0.19959382
0.87378064
0.12482292
0.03356831
0.76229033
0.92376574
0.69092619
0.93233720
0.09255933
0.45214649
0.16107444
0.84448631
0.57477078
0.29011324
0.92930619
0.81653075
0.65723010
0.04323720
0.56781346
0.19700316
0.99661137
0.57326242
0.03939617
0.68464829
0.14297147
0.59612577
0.92960391
0.50418138
0.71957374
0.89421441
0.59240196
0.91916757
0.76799505
0.71722488
0.95273588
0.53028539
0.64099062
0.64366207
0.46262259
0.73354995
0.09580856
0.62369704
0.57803626
0.67057934
0.91381028
0.50734246
0.48711009
0.57104037
0.55057966
0.05492355
0.76804353
0.54719103
0.62818596
0.80743970
0.23183932
0.77115743
0.40356546
0.16144322
0.27533881
0.12313921
0.05565764
0.86774078
0.04230677
0.82365269
0.58496566
0.99504265
0.35393808
0.22595629
0.63870472
0.81656067
0.95950623
0.73451328
0.44025771
0.53754249
0.40509262
0.35406799
0.04488495
0.89220271
0.92510836
0.59546461
0.94712626
0.69315189
0.14265563
0.57531222
0.50059159
0.37449495
0.34646966
0.90415705
0.53593817
0.62180847
0.02729626
0.59159581
0.48954925
0.06960303
0.41524850
0.07451491
0.06464568
0.76918658
0.30047120
0.70335040
0.58574725
0.25997743
0.43786368
0.02600496
0.79751992
0.84295630
0.38007295
0.84240487
0.73515901
0.30518131
0.43786948
0.68228527
0.99833320
0.58052511
0.25759749
0.49892478
0.95502005
0.60406714
0.40308183
0.49095822
0.22587561
0.43037809
0.08255403
0.71542486
0.49998113
0.49780253
0.78993977
0.56462681
0.26698911
0.09041097
0.26797721
0.85273636
0.35038840
0.70584089
0.87874132
0.14790832
0.54879719
0.25881427
0.99031319
0.28395619
0.56399557
0.42818267
0.96624146
0.56232877
0.00870778
0.22383895
0.06125355
0.96372783
0.82790609
0.46433539
0.45468606
0.05378170
0.89471348
0.53724009
0.76920656
0.39469461
0.03504262
0.55914633
0.95932142
0.30203172
0.64955730
0.22729863
0.15476808
0.99994570
0.93313952
0.03350940
0.14785401
0.48193671
0.29232367
0.13816720
0.76589291
0.85631924
0.56634987
0.73213437
0.41864801
0.57505765
0.95597331
0.47990157
0.53878549
0.78387940
0.94423696
0.99347154
0.83766111
0.83895044
0.53071163
0.60686767
0.23364505
0.56575425
0.16601400
0.19296647
0.86778597
0.81557130
0.42026511
0.02255405
0.81551700
0.35340463
0.05606345
0.96337101
0.83534134
0.34838712
0.10153821
0.60123424
0.20470636
0.66788809
0.33336861
0.62335438
0.24294574
0.28934192
0.10325594
0.78173123
0.07322133
0.04749290
0.77520277
0.91088244
0.88644334
0.30591440
0.51775010
0.12008839
0.87166865
0.68376411
0.31305486
0.73945462
0.49933541
0.73331997
0.76200867
0.31485240
0.08672460
0.81807213
0.27822341
0.92206594
0.16645925
0.37976163
0.52330018
0.37116561
0.04764971
0.85666879
0.99451999
0.29059546
0.14601071
0.09777593
0.07232668
0.21923204
0.14526883
0.84752946
0.13011448
0.03171217
0.15344386
0.64786458
0.15180056
0.02511251
0.33162869
0.46485542
0.76456713
0.83096409
0.19817539
0.52657581
0.14581650
0.28489999
0.34464793
0.42403991
0.20696593
0.51110718
0.80380153
0.73026611
0.88227279
0.85145125
0.58693490
0.87679278
0.14204670
0.73294561
0.97456872
0.21437339
0.95217765
0.11983755
0.06190284
0.08229213
0.15154972
0.21534670
0.73015671
0.30335029
0.24045921
0.06178540
0.76820571
0.00502635
0.89274949
0.96638110
0.53160216
0.03856598
0.25128109
0.87625009
0.46260589
0.45824702
0.38735727
0.26640743
0.18851313
0.26963007
0.11785867
0.77544802
0.14642285
0.25990537
0.50839364
0.12099156
0.47427876
0.46057129
0.24082911
0.53618160
0.54286342
0.39237884
0.75152830
0.27302013
0.69572912
0.99198752
0.33480552
0.46393484
0.99701386
0.22755501
0.43031594
0.52861602
0.26612099
0.68159703
0.40486611
0.72872689
0.13984405
0.79222338
0.99513431
0.32835718
0.06185344
0.11299299
0.10380520
0.20827629
0.37289836
0.61219884
0.32926786
0.84717712
0.07277013
0.57009697
0.38335872
0.61563354
0.96247581
0.13488702
0.88865367
0.65820493
0.12687454
0.22345919
0.12213977
0.12388840
0.45101420
0.55245571
0.65250442
0.71713520
0.23405274
0.05737052
0.44586208
0.37389679
0.84959390
0.44099640
0.70225397
0.91144735
0.55398938
0.80605918
0.11972364
0.92688774
0.41825802
0.44899150
0.77406486
0.49102815
0.01908847
0.15742359
0.10666169
0.98156428
0.29231061
0.99531536
0.63976921
0.41918515
0.21877455
0.76190898
0.54307355
0.66978875
0.31436469
0.19557797
0.38692395
0.54841743
0.25294849
0.83278603
0.92231423
0.10254239
0.27378243
0.62456820
0.01398974
0.82777181
0.43062738
0.13371338
0.75465956
0.84888540
0.58270488
0.52872442
0.33991355
0.60179335
0.68614801
0.44657524
0.58335763
0.97845862
0.44189060
0.22312684
0.39764376
0.66066515
0.98503583
0.94071731
0.33045391
0.29940052
0.13629528
0.71737786
0.84781795
0.38924377
0.55016389
0.77013218
0.49178616
0.82394632
0.39470038
0.50577590
0.65171813
0.82532776
0.63948928
0.40637769
0.67421316
0.22219415
0.93510211
0.01412671
0.82398750
0.62125012
0.46070195
0.40734512
0.59970873
0.90259255
0.63047196
0.99735250
0.56325770
0.61550779
0.93806981
0.89371161
0.91490831
0.07436509
0.61108946
0.76272626
0.46360885
0.16125335
0.53285843
0.95539501
0.98519967
0.92755882
0.46117091
0.63691780
0.75288658
0.10066019
0.04329549
0.42709974
0.32285434
0.97839760
0.44122645
0.14684183
0.59964772
0.90192839
0.55418696
0.19935645
0.80452094
0.18465892
0.19670895
0.36777864
0.80016671
0.13477876
0.26149025
0.71507501
0.20914385
0.87257971
0.47780127
0.67275270
0.03383306
0.01065970
0.62814772
0.01903273
0.93821852
0.08931863
0.65595053
0.69110509
0.18997881
0.69924602
0.11820483
0.51283315
0.67764363
0.55943128
0.65967498
0.27729135
0.46135967
0.21386194
0.47664780
0.26588061
0.39852086
0.67335675
0.63365925
0.19868757
0.80813551
0.89514950
0.91376258
0.01727936
0.76772920
0.39156385
0.69003207
0.80156226
0.40222356
0.31817979
0.82059499
0.34044208
0.40749841
0.47654552
0.03154717
0.59747722
0.17579154
0.14975200
0.11031037
0.85343517
0.70918328
0.76998536
0.13072651
0.17054295
0.98384730
0.60737431
0.43642356
0.38236816
0.28073106
0.07008281
0.58105573
0.08886658
0.96523231
0.49481831
0.10614594
0.73296152
0.88638217
0.79617801
0.53452378
0.28860572
0.11435779
0.35511877
0.62904780
0.52185621
0.83166429
0.66059497
0.11933343
0.00745583
0.81034697
0.22964380
0.86089100
0.51953025
0.99962916
0.99161751
0.69007320
0.98347645
0.59899182
0.12649676
0.36584461
0.87972288
0.19657957
0.94690034
0.96858946
0.16181188
0.44171866
0.07473540
0.89477340
0.32810082
0.87091341
0.42929718
0.61670654
0.98527120
0.78441595
0.24575434
0.50712741
0.61608023
0.90634931
0.62646084
0.62353606
0.71669628
0.85610464
0.48442706
0.23622652
0.85573379
0.47604457
0.92629972
0.83921025
0.07503639
0.05279648
0.20505486
0.95475927
0.24937605
0.15195520
0.92334873
0.41118793
0.59367386
0.99808413
0.30596133
0.92177468
0.86899754
0.73525851
0.53848123
0.85426874
0.51967446
0.78423557
0.36139615
0.13575469
0.69058488
0.98785698
0.75929075
0.40728115
0.84396162
0.24371781
0.64350768
0.69969541
0.71976238
0.56980740
0.53890566
0.79479876
0.62260388
0.74396052
0.74955803
0.87197993
0.89591573
0.67290676
0.28316786
0.48958959
0.67099089
0.58912919
0.41136427
0.53998843
0.32438771
0.94984549
0.39425716
0.84406216
0.73408106
0.75565331
0.97981685
0.42466594
0.74351029
0.73910760
0.83194709
0.58747191
0.98282541
0.47545477
0.28716732
0.70258778
0.04526216
0.82607298
0.49738655
0.66786604
0.57003351
0.24694458
0.53984597
0.46594924
0.91985134
0.82301383
0.95553882
0.59084223
0.41214302
0.36690309
0.13083065
0.73653073
0.31674859
0.52508782
0.58059289
0.05082965
0.28074113
0.56040974
0.47549558
0.02425142
0.29951734
0.30744267
0.61172333
0.28234275
0.78289744
0.89889065
0.98493053
0.82815960
0.72496363
0.48231708
0.49602564
0.29499714
0.72926166
0.03587160
0.76094638
0.64911300
0.85888543
0.71648520
0.23995523
0.27102845
0.08338829
0.37078588
0.00755918
0.40013688
0.89587370
0.58815207
0.45096653
0.17661482
0.14856181
0.92646211
0.20086624
0.44807915
0.23390479
0.81258956
0.73042189
0.01680222
0.71148021
0.71535243
0.84496182
0.43644385
0.19766951
0.34098746
0.73144099
0.92693116
0.37685907
0.49238736
0.57604416
0.23574450
0.20887256
0.81599939
0.50677295
0.29226085
0.18678527
0.51433213
0.69239773
0.08265897
0.10248420
0.14336426
0.25927379
0.25104601
0.06982637
0.46014003
0.69912515
0.30373116
0.27272959
0.42954705
0.32053338
0.98420981
0.14489947
0.16549521
0.42065365
0.34256898
0.50648267
0.15209464
0.26950014
0.88334174
0.64448200
0.84554430
0.11908624
0.85335456
0.66154369
0.62585919
0.14561542
0.84832896
0.14019132
0.83801315
0.93098793
0.24267552
0.98137741
0.19026172
0.49372153
0.05120379
0.65040175
0.19284668
0.35493495
0.92313134
0.62239373
0.67546833
0.90734115
0.76729320
0.84096354
0.32799480
0.10986218
0.34744621
0.48008944
0.37936232
0.23078795
0.12457144
0.22490662
0.34987419
0.97792600
0.88645032
0.97573338
0.12354142
0.73477928
0.11592470
0.96155457
0.66576721
0.35860023
0.94293198
0.85602893
0.85232176
0.99413577
0.50643067
0.04516844
0.34907072
0.42956201
0.66756217
0.02453906
0.33690316
0.43485537
0.86550260
0.66489795
0.54471755
0.21294881
0.14498739
0.92407987
0.44373675
0.26955883
0.14898649
0.79361094
0.24748482
0.03543680
0.76934432
0.37102624
0.77021608
0.88526902
0.33258081
0.43598329
0.24386925
0.27551279
0.29201221
0.09619101
0.26964857
0.79844289
0.14135945
0.61871929
0.22800490
0.80892162
0.64325835
0.56490805
0.24377698
0.50876094
0.22980601
0.78849453
0.72170975
0.37479340
0.71257440
0.16544650
0.64435222
0.86156088
0.95905744
0.89183705
0.89699769
0.72840176
0.26286329
0.66721377
0.61367078
0.59544410
0.10319706
0.85754003
0.87095689
0.39520928
0.95373104
0.14060546
0.19365216
0.09509048
0.75932475
0.42165706
0.90401210
0.40258309
0.98656511
0.14778908
0.91134404
0.21637112
0.93628361
0.63305378
0.59116451
0.64885801
0.79850028
0.23551673
0.51041889
0.75755772
0.12735378
0.40741658
0.48595949
0.39021707
0.07463035
0.09963027
0.98566117
0.17782741
0.95717030
0.85661806
0.57303669
0.91090134
0.99722352
0.76668885
0.00599182
0.75654827
0.18834591
0.91000392
0.15913136
0.17491102
0.05779300
0.07047539
0.39128214
0.99407662
0.70352918
0.98244665
0.64293463
0.50202946
0.21796339
0.15335352
0.25958718
0.34531717
0.56077010
0.74554667
0.73553423
0.63540045
0.84517694
0.72119540
0.81322786
0.80234724
0.57781346
0.38626455
0.71324858
0.57503697
0.15295340
0.71924040
0.33158524
0.34129931
0.62924432
0.49071660
0.51621033
0.68703733
0.56119199
0.90749247
0.68111394
0.26472117
0.88993912
0.32404857
0.76675063
0.10790251
0.47740209
0.02633781
0.45321968
0.03817219
0.77188448
0.18875391
0.67357264
0.61706142
0.90994931
0.48680051
0.41940866
0.48776277
0.87306506
0.13265724
0.06279974
0.02601846
0.85189764
0.39438499
0.36731777
0.48114196
0.88510159
0.88352810
0.16817928
0.44629358
0.79102057
0.84929323
0.71101475
0.68095969
0.17334180
0.47776538
0.78886221
0.65074389
0.50410319
0.24208188
0.68891609
0.27598768
0.43083580
0.36248873
0.89304910
0.34078511
0.84928924
0.31245776
0.82854788
0.72235430
0.44511500
0.89134763
0.74837276
0.29701264
0.28573261
0.11569053
0.77815459
0.17083420
0.99921863
0.94633388
0.61712778
0.79023920
0.79562711
0.32814253
0.47119890
0.96896891
0.80590791
0.26006110
0.61971280
0.31001110
0.50214299
0.30862889
0.58599878
0.93297879
0.67111762
0.47904788
0.27376390
0.52040686
0.79150564
0.10231178
0.24276115
0.23662064
0.99365941
0.99113391
0.53363327
0.27939202
0.10682445
0.31178787
0.45022621
0.10604308
0.25812175
0.06735399
0.89628228
0.05374885
0.39549652
0.36748118
0.02271776
0.20140442
0.62754228
0.64243057
0.51141553
0.12968527
0.95105945
0.09741431
0.06266405
0.62217707
0.57646219
0.33642795
0.14258393
0.36796783
0.43873973
0.38534508
0.60458846
0.43239913
0.37647899
0.13822174
0.71179115
0.48330344
0.45000960
0.16201736
0.58934652
0.70813135
0.22937135
0.48562880
0.76188020
0.62486786
0.85310998
0.78459797
0.82627229
0.48065226
0.42702853
0.33768782
0.61033753
0.37808799
0.43510213
0.67300158
0.00026506
0.01156431
0.00942953
0.14284898
0.37953214
0.44816925
0.52819406
0.98412060
0.88056838
0.90467306
0.12234234
0.59235953
0.38797650
0.57235194
0.75437689
0.97732302
0.28048329
0.98374824
0.46295182
0.04236349
0.60861610
0.31606179
0.82696146
0.43488839
0.79671405
0.25399000
0.77257621
0.40705158
0.63207798
0.20767833
0.08005315
0.63234304
0.21924265
0.08948268
0.77519203
0.59877479
0.53765193
0.30338609
0.58289539
0.41822031
0.20805915
0.70523773
0.01057984
0.59603565
0.27758967
0.76495673
0.57335867
0.55807296
0.74870496
0.03631048
0.60043645
0.35732106
0.35237228
0.42739791
0.79220945
0.14908633
0.68138791
0.56478566
0.55613791
0.31346589
0.77246400
0.63619106
0.94580894
0.99170664
0.72567374
0.72100096
0.59048143
0.26332567
0.02438705
0.17337682
0.68154599
0.23244620
0.87861455
0.69212583
0.82848185
0.15620422
0.45708256
0.40184052
0.71427718
0.20578752
0.43815100
0.31471364
0.56310858
0.79052328
0.74211155
0.35531804
0.93960961
0.42349946
0.92010370
0.49574751
0.73696536
0.69256770
0.13193858
0.68277430
0.68427434
0.85761232
0.40377526
0.27475577
0.12093799
0.42816231
0.44813260
0.80248398
0.66060852
0.32674715
0.49460980
0.48909037
0.48295137
0.95169236
0.89093089
0.19722856
0.15747988
0.32908189
0.51194220
0.72058846
0.11960517
0.25405375
0.07590650
0.05921478
0.67755321
0.99601020
0.55496229
0.41451857
0.68857790
0.68690087
0.09729287
0.37285224
0.54451319
0.50106813
0.64760801
0.66545118
0.92923044
0.09574060
0.46793515
0.58983896
0.42248775
0.96254495
0.07892933
0.90543913
0.91423731
0.96986022
0.10266768
0.07171719
0.29894211
0.61460988
0.79230565
0.41854728
0.86866363
0.86821215
0.47776206
0.54621684
0.86422235
0.03272436
0.96073542
0.55280025
0.71962523
0.05802828
0.92565248
0.26413841
0.55909641
0.57326049
0.92958959
0.48832685
0.66900109
0.39752474
0.07816581
0.09148885
0.36006970
0.15709514
0.99692797
0.27430701
0.12695536
0.09959566
0.34602420
0.42589747
0.71420554
0.13832985
0.84444476
0.58286917
0.00654201
0.32220682
0.12908601
0.87076436
0.35493118
0.08982143
0.42356461
0.07455641
0.14784971
0.34921709
0.33869482
0.70694612
0.92247758
0.26828441
0.19527298
0.59147868
0.66580915
0.27343879
0.68296753
0.02587885
0.43053393
0.67989550
0.30018586
0.55748929
0.77949115
0.64621006
0.98338676
0.49369669
0.78453992
0.82783152
0.07656586
0.79108192
0.15003834
0.20565187
0.66184628
0.50496952
0.29547329
0.08541089
0.57952593
0.44332301
0.43462798
0.91822075
0.15026913
0.35710557
0.18650516
0.34554211
0.94858425
0.85231431
0.61898089
0.63155177
0.87819317
0.04951482
0.31144727
0.17837903
0.60700411
0.09093842
0.82458909
0.59039087
0.58463511
0.60912900
0.41822238
0.66120097
0.40021092
0.56826072
0.86685283
0.06205721
0.07323024
0.16232613
0.14746810
0.65275617
0.60564913
0.58209608
0.57097692
0.75591826
0.93920164
0.75748208
0.10146037
0.88778589
0.60979639
0.72044126
0.51933766
0.48798956
0.76995608
0.83078493
0.66636858
0.37696019
0.92172335
0.49095767
0.96735105
0.50635846
0.10008667
0.38557344
0.16755943
0.50029760
0.95383416
0.03441226
0.56235480
0.02706440
0.19673839
0.70982290
0.67982057
0.80238752
0.29191898
0.25079749
0.55830578
0.23112062
0.00827957
0.65976615
0.11890651
0.61807597
0.38020741
0.63824417
0.10606552
0.15016348
0.46902910
0.77243411
0.52712367
0.39075245
0.26339178
0.49447472
0.89711091
0.36347845
0.88004816
0.06467034
0.86377605
0.83388232
0.09908260
0.42613085
0.86094673
0.29582099
0.13595375
0.54076730
0.09820850
0.42787273
0.79156479
0.65651428
0.65899335
0.79984437
0.31628043
0.77789986
0.41792033
0.69648784
0.41614403
0.52398585
0.84665132
0.88517312
0.29641996
0.37377499
0.27592557
0.55981174
0.86824971
0.17303648
0.92329019
0.74829787
0.23770682
0.78706624
0.58218020
0.33678941
0.21319710
0.44312692
0.63261040
0.34915085
0.98389422
0.73081890
0.77702358
0.77545902
0.38733319
0.43601693
0.57530338
0.70361362
0.21391679
0.99322371
0.40010145
0.63006082
0.51720957
0.24675277
0.51523394
0.81362953
0.62052776
0.79115951
0.37344127
0.48877748
0.96419599
0.29673147
0.23707535
0.20190280
0.08379771
0.81925555
0.53869222
0.29699481
0.26238247
0.17130261
0.64614566
0.24627669
0.90212152
0.42316924
0.02173571
0.28945470
0.85918617
0.59703909
0.99306832
0.07310296
0.59026280
0.39316977
0.70316378
0.10747237
0.63992254
0.21839772
0.92110190
0.26045031
0.00955723
0.29454317
0.74922778
0.97375321
0.59127464
0.98630313
0.17565602
0.67507235
0.80555868
0.71434823
0.97206716
0.06794115
0.88565085
0.61821282
0.31421784
0.78777237
0.04138206
0.33595355
0.07722707
0.90056823
0.93299264
0.07029539
0.97367119
0.52325544
0.46346516
0.67683497
0.63072781
0.10338771
0.89523269
0.55182971
0.36383801
0.90478991
0.84637288
0.11306579
0.87854313
0.43764752
0.09936892
0.05419914
0.11271987
0.90492760
0.76854738
0.08478703
0.97286875
0.65419822
0.70299984
0.28708659
0.44197059
0.74438190
0.62304013
0.51919766
0.64495013
0.55603277
0.58949305
0.61862132
0.07928821
0.05295821
0.29545629
0.71001602
0.15634592
0.19068898
0.26184573
0.52018393
0.09547889
0.10821861
0.63324972
0.97402201
0.54586613
0.73261864
0.02822116
0.65858600
0.63754625
0.79676853
0.74337302
0.61041500
0.45096676
0.44637286
0.89750158
0.89293735
0.19075476
0.52054172
0.41213501
0.83570489
0.07657448
0.00162806
0.45432622
0.15586269
0.05458627
0.74978251
0.86587871
0.21093219
0.94047148
0.12772443
0.73111612
0.03595037
0.23594304
0.36436584
0.00997239
0.78180917
0.09698448
0.03819354
0.44039517
0.73453073
0.83496208
0.18376819
0.34494572
0.28592884
0.63014105
0.24244731
0.17886619
0.82089582
0.76298902
0.59100120
0.65660071
0.83956351
0.59262926
0.11092693
0.99542620
0.64721553
0.86070944
0.86130490
0.85814772
0.80118092
0.98902934
0.58926383
0.83713129
0.22497238
0.95362967
0.84710367
0.00678155
0.05061415
0.88529722
0.44717672
0.78514488
0.72025930
0.63094491
0.13009060
0.00618813
0.26108596
0.37253791
0.18505432
0.08198178
0.13552693
0.77605551
0.73858249
0.97509044
0.36868477
0.84950942
0.97051664
0.01590030
0.71021886
0.83182154
0.87404801
0.51139977
0.82085088
0.46331185
0.34853106
0.04582326
0.41694152
0.19563474
0.05260481
0.46755567
0.08093195
0.49978152
0.25270055
0.80119125
0.13072643
0.38279116
0.80737938
0.39181238
0.75532907
0.99243370
0.47379416
0.89085600
0.76848921
0.21237665
0.86594644
0.13717398
0.06188608
0.83646308
0.15307428
0.77210493
0.66828462
0.02712229
0.28350471
0.48913550
0.49043414
0.63203577
0.53495876
0.90737566
0.82767051
0.58756357
0.37493133
0.90860246
0.08734509
0.62763188
0.70979371
0.21807151
0.01042304
0.51717309
0.60988390
0.76575211
0.50960679
0.08367806
0.65660811
0.27809600
0.29605471
0.52255455
0.41526998
0.35794079
0.35901763
0.56834426
0.13004572
0.02730225
0.59546655
0.41355043
0.51643776
0.08590068
0.04558620
0.05139652
0.99327634
0.87325671
0.63896009
0.36820767
0.78185917
0.72630517
0.99583955
0.49165288
0.94437669
0.00626259
0.00882597
0.55426058
0.77201469
0.51843276
0.63793864
0.42862280
0.79652876
0.93399336
0.95117735
0.21179874
0.29193415
0.31019498
0.78014300
0.42197987
0.33749724
0.37560955
0.83553031
0.85393499
0.46151023
0.88111651
0.90533151
0.45478657
0.75437322
0.54429160
0.82299424
0.53623239
0.27059677
0.81883379
0.02788527
0.21497346
0.82509638
0.03671124
0.76923404
0.59711107
0.55514400
0.40717269
0.02573387
0.35167276
0.34116605
0.97691122
0.56347150
0.63310020
0.28710621
0.34361450
0.05508007
0.62460344
0.71922405
0.89061038
0.47853844
0.18073428
0.77172688
0.38386995
0.63552085
0.52610010
0.92816155
0.45851509
0.06233249
0.19875832
0.27734887
0.09021775
0.41373178
0.10244525
0.12692899
0.18296582
0.69955632
0.68207299
0.59013851
0.72529019
0.03374575
0.93130455
0.70220142
0.59721725
0.56440475
0.98930762
0.94083175
0.61948482
0.61391106
0.66005580
0.51009519
0.09244950
0.84079008
0.28182207
0.47631945
0.47631093
0.80792217
0.40448099
0.93482602
0.87025466
0.60323931
0.21217489
0.96047241
0.01697109
0.31462014
0.08740141
0.19993691
0.01417646
0.76947440
0.79007541
0.73946666
0.80322015
0.72137996
0.44166807
0.40043740
0.28578471
0.43097569
0.34126915
0.90526953
0.04488676
0.00132496
0.41536472
0.13733625
0.84211504
0.69718679
0.61365570
0.31842597
0.50510896
0.01813669
0.25325199
0.37536362
0.62137600
0.46542689
0.33583604
0.63834709
0.78004703
0.42323744
0.83828400
0.79422350
0.19271184
0.62835941
0.53369015
0.99593199
0.34973937
0.97535822
0.39636939
0.63552408
0.40633391
0.73763854
0.54079361
0.45122067
0.73896350
0.95615832
0.58855692
0.58107854
0.65334511
0.20221262
0.89950451
0.15845407
0.22034931
0.15275651
0.53381770
0.84172531
0.61818339
0.86965373
0.48007240
0.39823043
0.29289117
0.31835640
0.19245392
0.48560301
0.94671581
0.72614407
0.48153500
0.29645518
0.70150229
0.87790438
0.93197926
0.10783621
0.61554292
0.47277287
0.55905688
0.35450642
0.42893119
0.14761380
0.93558496
0.08227631
0.34982642
0.83508947
0.24073038
0.57017573
0.98784597
0.77454808
0.41190104
0.60602937
0.64420181
0.89197344
0.00425979
0.93709298
0.21032984
0.19671371
0.42269600
0.15704564
0.92285779
0.90423099
0.45350082
0.62436008
0.78213538
0.38548008
0.73219628
0.39767830
0.85825295
0.29125316
0.75218472
0.28718415
0.43886696
0.68776967
0.36946046
0.78869337
0.52285914
0.61019084
0.35886910
0.51070511
0.38473892
0.77077015
0.11673448
0.02894073
0.66274359
0.12099427
0.96603371
0.87307343
0.31770799
0.38872971
0.03011907
0.24056577
0.29296070
0.48361989
0.86492585
0.07509607
0.86909998
0.59712213
0.47277437
0.72735293
0.88837529
0.22495909
0.01453708
0.32724225
0.91272876
0.38399753
0.11593562
0.43558791
0.99418837
0.47480473
0.94629302
0.37892729
0.24557487
0.06302750
0.40786802
0.90831846
0.18402177
0.37390172
0.78139189
0.50172976
0.76263143
0.81151096
0.74229553
0.05559213
0.29513085
0.60722139
0.13068820
0.16423083
0.20434352
0.60346258
0.89158376
0.09271881
0.82842167
0.90612084
0.41996106
0.74115043
0.29011837
0.53589669
0.17673834
0.28430675
0.01070141
0.12303136
0.66323403
0.25627628
0.18605886
0.07110205
0.16459474
0.37008063
0.44500377
0.94598663
0.87181040
0.20763520
0.75749759
0.61410593
0.26322733
0.05262844
0.22132731
0.39391554
0.21685927
0.42567083
0.99737811
0.10844303
0.51838965
0.82579978
0.01456386
0.93835071
0.56695021
0.30468224
0.47424740
0.74368855
0.58898898
0.48494881
0.86671991
0.25222301
0.74122509
0.05277877
0.32332506
0.90581984
0.42285940
0.76832884
0.85180647
0.29466979
0.97596404
0.60930406
0.90877572
0.23919137
0.66193250
0.13010304
0.63310691
0.87879176
0.55577387
0.63048503
0.98723479
0.07416352
0.45628481
0.00179865
0.01251423
0.02323502
0.30648089
0.48676163
0.76692357
0.89546987
0.97171044
0.63364348
0.14769288
0.71293553
0.68642225
0.47101795
0.61875537
0.10928165
0.23934679
0.47056184
0.40395144
0.21531083
0.07986590
0.31272716
0.45450220
0.74179840
0.44283020
0.08760911
0.62059016
0.99860408
0.71809414
0.60782495
0.07276760
0.17437894
0.60962360
0.08528183
0.19761396
0.91610449
0.57204345
0.96453754
0.81157436
0.54375389
0.59818102
0.95926724
0.25668942
0.28460327
0.43028519
0.87544480
0.39388491
0.66963197
0.34600664
0.79783635
0.88494280
0.42587254
0.11056352
0.33944500
0.16767093
0.55339372
0.42705411
0.78826109
0.55199780
0.14514825
0.39608604
0.62476539
0.31952719
0.00570964
0.71004722
0.51714115
0.92181412
0.28209067
0.48167869
0.73338848
0.82584456
0.07985971
0.69265572
0.08253399
0.36446297
0.12294090
0.95797879
0.75834789
0.79257287
0.30398542
0.55618424
0.67751567
0.72985796
0.66674776
0.01696067
0.89752889
0.22014148
0.44401478
0.68578998
0.77213927
0.58916302
0.08187602
0.39690466
0.90869021
0.08758565
0.10695188
0.42583136
0.00939977
0.38904256
0.90751005
0.74278825
0.21488712
0.98736976
0.43544396
0.29742111
0.35183274
0.55838487
0.25539989
0.11018062
0.35095774
0.55938532
0.66636486
0.02847341
0.28924327
0.33311262
0.04543408
0.18677216
0.55325409
0.48944886
0.87256214
0.32539337
0.07861188
0.95443816
0.72229803
0.98730209
0.04202381
0.82924992
0.41313346
0.05142358
0.21829247
0.32064351
0.79421183
0.43317959
0.30801327
0.22965580
0.73060070
0.65984601
0.78804066
0.98600059
0.77002663
0.13899840
0.54538591
0.43639149
0.16747181
0.83462918
0.76950411
0.21290589
0.02140135
0.32275820
0.70235475
0.89396349
0.64815157
0.78096663
0.84840165
0.37044960
0.76826873
0.89042546
0.19969952
0.18140218
0.94184904
0.41799199
0.50204569
0.73606087
0.85117158
0.81005897
0.96571667
0.58177228
0.46990497
0.75375733
0.56777288
0.23993160
0.89275573
0.11315878
0.67632309
0.06022754
0.94778797
0.44582720
0.27313344
0.96918932
0.76858540
0.97548819
0.86315281
0.41673697
0.75645482
0.71155445
0.78718658
0.52472355
0.60197991
0.98688609
0.70612573
0.54382895
0.40487808
0.20817142
0.27988982
0.25604966
0.01823039
0.24560649
0.83782195
0.48813537
0.99936382
0.40559482
0.72806697
0.89211955
0.51875361
0.40439006
0.95234709
0.46654157
0.85021727
0.22548053
0.43573089
0.61880267
0.20096872
0.29888370
0.03553964
0.95742354
0.01043815
0.82272622
0.48214708
0.61241806
0.80961231
0.18827281
0.15624701
0.21449040
0.39644424
0.43613683
0.47054006
0.41467463
0.68174332
0.30836201
0.90281000
0.68110714
0.71395683
0.63087697
0.57322669
0.23271044
0.03526703
0.52557378
0.69925201
0.88548429
0.75105431
0.13498290
0.50428696
0.95202303
0.43386660
0.53982661
0.90944656
0.44430474
0.36255282
0.39159365
0.05672281
0.17216514
0.57986646
0.21296982
0.38665554
0.97631070
0.64910665
0.85719560
0.39098533
0.33084998
0.16555761
0.29379533
0.01195712
0.87951444
0.92467229
0.58518380
0.11222487
0.95993932
0.11075758
0.81147688
0.84542362
0.86181189
0.94645978
0.34971058
0.81383492
0.38032637
0.88953719
0.72328148
0.82463112
0.25209001
0.11487513
0.88135392
0.42425515
0.69474159
0.09432374
0.81091068
0.67105230
0.74343039
0.66810628
0.06203763
0.07428037
0.83366389
0.35583296
0.08623749
0.71317832
0.28050525
0.67142129
0.82540319
0.24044458
0.78217887
0.63688007
0.08586819
0.64399076
0.58333985
0.43557878
0.45782568
0.96366623
0.32511596
0.18110716
0.78829735
0.57720598
0.29598230
0.66965127
0.00146113
0.99072389
0.76397501
0.81237181
0.66177618
0.50740541
0.48047809
0.72381381
0.58168578
0.31414198
0.07964677
0.66792326
0.02732030
0.36015202
0.33934455
0.85272350
0.60059660
0.12152342
0.48960357
0.68646479
0.76551419
0.07294342
0.12204357
0.22333987
0.03660965
0.44715953
0.40444703
0.82490700
0.02436551
0.70042933
0.49455827
0.02582664
0.69115322
0.25853328
0.83819845
0.35292940
0.76593868
0.31867654
0.07674321
0.34762446
0.63281852
0.15638998
0.01554772
0.66013882
0.51654201
0.35489227
0.51286232
0.11713861
0.47641569
0.00246589
0.80360340
0.24192988
0.07540931
0.92564697
0.46526974
0.11201896
0.37280651
0.86971678
0.93692596
0.39717202
0.57014610
0.43148422
0.42299865
0.26129932
0.69001750
0.26119710
0.61422872
0.45595618
0.57987364
0.69097193
0.80358064
0.21269216
0.84736192
0.81912836
0.87283098
0.36390393
0.17402063
0.38569330
0.48104253
0.65043633
0.38815919
0.28464593
0.89236620
0.46356850
0.21029291
0.35763595
0.57558746
0.58309941
0.22735272
0.51251342
0.98027143
0.79749882
0.94399764
0.40327008
0.05879814
0.63401514
0.66446718
0.67302686
0.08997132
0.24434081
0.36399880
0.89355196
0.45703297
0.21136071
0.71268033
0.32986395
0.57526464
0.88670096
0.71555725
0.05630717
0.53713729
0.10371643
0.34095311
0.42950349
0.56728493
0.55124601
0.78713943
0.14287239
0.13434542
0.01449215
0.65538581
0.11461685
0.81199098
0.59938345
0.51788693
0.87078912
0.23339858
0.18235410
0.54381598
0.32336990
0.42669492
0.90781478
0.21692186
0.88372789
0.11917549
0.92960219
0.21359183
0.69444013
0.81630315
0.92914908
0.75074731
0.35344044
0.03286551
0.09170041
0.78294393
0.60015045
0.64294643
0.57008336
0.74302284
0.77729185
0.58457551
0.39840864
0.89190870
0.39656649
0.99779209
0.40979563
0.26735561
0.23119067
0.59214973
0.81117159
0.55456057
0.01884465
0.71898637
0.77148244
0.90257253
0.83816186
0.70108463
0.11616436
0.53260200
0.51738778
0.04531344
0.28334930
0.87082822
0.07817896
0.37504972
0.65377214
0.67832940
0.01799614
0.22385550
0.42135224
0.79528799
0.80843101
0.81976088
0.68719669
0.20499750
0.81755297
0.09699232
0.47235311
0.04874364
0.68914205
0.28352471
0.60330421
0.70798670
0.00251108
0.37478665
0.61055923
0.84067294
0.07587128
0.72672359
0.37327494
0.59325906
0.77203703
0.65662424
0.46408728
0.85021599
0.03167396
0.11785942
0.52854539
0.04967010
0.34171492
0.94989763
0.84495809
0.15014593
0.76965851
0.53215479
0.35514343
0.58721148
0.62914711
0.82749655
0.63595512
0.31828916
0.11102126
0.23925933
0.02627585
0.11353234
0.61404598
0.63683508
0.95420528
0.68991726
0.36355867
0.32748022
0.28317632
0.13559570
0.98410446
0.74726359
0.98581169
0.01577842
0.86512301
0.51435708
0.06544852
0.20683793
0.46425470
0.91040661
0.35698386
0.23391321
0.44256140
0.71212729
0.82112469
0.07170851
0.53962384
0.45707981
0.38999766
0.65064509
0.69633914
0.41627351
0.76417743
0.31038512
0.05310859
0.71838271
0.00030237
0.41666726
0.04586293
0.28347869
0.55226296
0.02996739
0.03074228
0.53807465
0.04574581
0.89586529
0.05243172
0.11119433
0.10270322
0.51668643
0.02160094
0.45968707
0.75059964
0.46416234
0.17181436
0.57172433
0.53587084
0.71143820
0.02880414
0.92586851
0.36208329
0.72514328
0.34214202
0.12626072
0.03552839
0.39525061
0.84464343
0.03583077
0.81191787
0.89050636
0.31930946
0.36418083
0.92047375
0.35005174
0.90225548
0.96621956
0.24591703
0.95468720
0.07741388
0.34862024
0.47137363
0.09901482
0.80830732
0.22197328
0.56317716
0.98012168
0.79369761
0.09904800
0.69155988
0.82250175
0.02491651
0.05364317
0.54764503
0.36705853
0.17990389
0.58317342
0.76230914
0.02454732
0.61900419
0.57422701
0.91505368
0.93831364
0.93840784
0.83552743
0.28836538
0.84066332
0.80174698
0.53428241
0.79535053
0.87916087
0.88290266
0.26672416
0.97817569
0.69120997
0.48869744
0.54135285
0.67133165
0.28239504
0.64040085
0.36289153
0.10489679
0.66531736
0.41653470
0.65254182
0.03237589
0.59643858
0.23571524
0.79468503
0.62098590
0.85471942
0.36891204
0.53603958
0.79303307
0.30731988
0.37156700
0.08139845
0.14798321
0.17331399
0.61568086
0.94333373
0.05247485
0.49858352
0.21005789
0.03065054
0.18979349
0.69875533
0.57200339
0.86112514
0.98115037
0.21240424
0.22401667
0.08604717
0.87772160
0.64055136
0.73858899
0.91009748
0.23698995
0.97430422
0.70478251
0.85797585
0.82902365
0.07369455
0.39401543
0.62205671
0.38101443
0.76558243
0.70345516
0.52899764
0.93889642
0.31913602
0.47233137
0.99137127
0.81771954
0.68238926
0.02202181
0.00751303
0.38114459
0.59402520
0.86863817
0.36229497
0.80642943
0.09265483
0.44834214
0.68415103
0.73320620
0.18693112
0.59424851
0.97019614
0.16123535
0.29903102
0.82817199
0.99025900
0.37272556
0.22218742
0.61231571
0.75374000
0.98776985
0.31577087
0.28273763
0.92666627
0.63490690
0.75506900
0.91803754
0.45262644
0.43745827
0.94005935
0.46013946
0.81860286
0.53408455
0.32877763
0.18089783
0.34051398
0.42143247
0.62923997
0.02466501
0.15463866
0.81617109
0.61891352
0.12483480
0.97740644
0.91794454
0.95300679
0.96766544
0.29067010
0.17519421
0.57998115
0.04441010
0.16296406
0.89575202
0.32714773
0.08963033
0.53065892
0.08221673
0.00766787
0.98328535
0.51967500
0.94772722
0.44342482
0.33827787
0.48181177
0.77220245
0.51917570
0.82232575
0.19363492
0.14841567
0.84699076
0.34827358
0.96458676
0.46590428
0.47310838
0.94199320
0.38384882
0.42611518
0.90965864
0.67451892
0.60130939
0.48963978
0.71892901
0.76427345
0.38539180
0.04607674
0.85390378
0.91605072
0.12829347
0.86157166
0.89933607
0.64796848
0.80929888
0.34276088
0.98624634
0.29111065
0.11496333
0.50542204
0.11343640
0.30859825
0.65383771
0.96042717
0.65687183
0.61842447
0.42633145
0.12998021
0.56041767
0.81018027
0.55609539
0.47007630
0.48469919
0.15740477
0.95971608
0.20362820
0.92167822
0.34510788
0.24970494
0.77558201
0.26115860
0.37799841
0.63715366
0.16049466
0.02596689
0.44645254
0.50325555
0.01221323
0.73756319
0.61821888
0.51763527
0.85099960
0.92681713
0.17147298
0.81142676
0.58368896
0.78989745
0.23775821
0.71366917
0.35031511
0.04793848
0.26976455
0.82039141
0.53263767
0.42716933
0.78010750
0.73626587
0.34884755
0.12521538
0.98597081
0.12442956
0.38637398
0.36396922
0.76158322
0.54686864
0.38993611
0.20803576
0.05012419
0.40214935
0.94559895
0.66834307
0.91978462
0.79659855
0.59516020
0.09125760
0.60802531
0.17884916
0.88115504
0.84578352
0.89251833
0.23147015
0.89372201
0.16228288
0.05186157
0.42635967
0.58945221
0.83196907
0.16262554
0.93829976
0.95718444
0.14859635
0.06272932
0.34355842
0.51256557
0.82431254
0.89042706
0.90250168
0.03234830
0.94055124
0.30465102
0.97794725
0.60889431
0.22443564
0.77454579
0.20405451
0.31569324
0.38257110
0.38290367
0.19684828
0.22835463
0.27542200
0.42831844
0.12207663
0.43770489
0.48018001
0.54843631
0.02715709
0.31214907
0.71106185
0.96545686
0.26933351
0.85965819
0.02818618
0.61289193
0.37222376
0.85249871
0.50331899
0.27472544
0.88484701
0.44387023
0.57937646
0.86279426
0.05276454
0.80381211
0.63734005
0.25681906
0.11950534
0.01991116
0.63972273
0.31635363
0.24826578
0.91514474
0.74467206
0.37034242
0.35284962
0.22485207
0.91877872
0.38000672
0.53700114
0.62984057
0.34546357
0.80633465
0.48949876
0.37364975
0.41922658
0.86172252
0.22614846
0.92254557
0.13644795
0.11099547
0.36641580
0.71582442
0.97378973
0.41918034
0.51963652
0.61112979
0.67599940
0.63914187
0.63104094
0.31572213
0.95549549
0.87930673
0.23086687
0.70016756
0.24964915
0.58371649
0.92501963
0.16842787
0.96372321
0.46202077
0.79826844
0.30918678
0.26835542
0.28776720
0.68283653
0.68758200
0.14948971
0.90898499
0.61012757
0.28593767
0.01998046
0.97654337
0.00176209
0.99377020
0.39572371
0.52139861
0.60489998
0.07172312
0.16054047
0.23594092
0.38744525
0.11603597
0.11524765
0.61831212
0.81620353
0.36489680
0.20202861
0.74122315
0.53332467
0.16575182
0.20324392
0.33159310
0.47493860
0.47159934
0.61936030
0.15777513
0.15918134
0.76885001
0.06676012
0.76930891
0.05478768
0.08674058
0.74585228
0.05654977
0.08051078
0.14157599
0.57794838
0.68541076
0.21329911
0.73848885
0.92135169
0.60074436
0.85452482
0.03659934
0.21905648
0.67072835
0.40149614
0.42108509
0.41195150
0.93482081
0.58683691
0.61519542
0.26641391
0.06177551
0.08679476
0.88577421
0.21955065
0.24597610
0.65462422
0.28631077
0.01528501
0.70941191
0.37305135
0.76113729
0.76596168
0.45356213
0.90271328
0.34391005
0.13897289
0.11601239
0.08239890
0.06032457
0.71675675
0.93692372
0.09692391
0.93581323
0.60765207
0.49842005
0.35689832
0.01960357
0.43324086
0.94373523
0.63479899
0.69965477
0.00551075
0.72159375
0.58542898
0.22506139
0.96756985
0.24005320
0.51137216
0.98285485
0.94946511
0.88442351
0.74399214
0.71542678
0.33798563
0.64670542
0.05933683
0.47695852
0.76271781
0.14173574
0.53728310
0.47947456
0.07865946
0.63420701
0.41528779
0.68631152
0.13262706
0.77218611
0.70591509
0.56586791
0.71592135
0.34071408
0.26552268
0.72143209
0.06230783
0.85095166
0.94649349
0.02987767
0.09100486
0.45786564
0.01273253
0.04046996
0.34228915
0.75672467
0.75589675
0.68027479
0.40343009
0.81523358
0.15723331
0.16614791
0.95696932
0.69451641
0.64562247
0.03562878
0.32872341
0.06091026
0.72194030
0.46135047
0.83309637
0.42785539
0.02721839
0.54901772
0.76856947
0.29274106
0.27044981
0.83087730
0.14369272
0.21694330
0.86075497
0.23469758
0.67480894
0.87348750
0.27516754
0.01709809
0.63021216
0.03106429
0.69737288
0.03364226
0.84629787
0.85460619
0.19979016
0.80326719
0.54912259
0.84541263
0.83889597
0.87784601
0.90632289
0.56083627
0.33919648
0.73941926
0.98869166
0.36641486
0.28843698
0.75726113
0.65915593
0.55888679
0.58813843
0.80284865
0.77583009
0.44889340
0.03754622
0.45063903
0.32238090
0.31271377
0.46773712
0.95259306
0.34377806
0.16511000
0.98623532
0.19007593
0.01971619
0.18602548
0.99334312
0.56883878
0.03143811
0.83223909
0.44668479
0.93776100
0.39307536
0.78588127
0.67718026
0.38176702
0.15229613
0.96561725
0.13902815
0.81145206
0.52450404
0.72716659
0.61430071
0.30033413
0.17605999
0.65184693
0.75097316
0.49844088
0.96456070
0.21871028
0.45103395
0.30833876
0.38382028
0.43726926
0.49841468
0.40353647
0.62329474
0.49175780
0.97237526
0.65473285
0.32399689
0.41906004
0.59249385
0.71707225
0.20494131
0.26967411
0.09883926
0.35723744
0.23529136
0.23786742
0.16868950
0.75979539
0.96503400
0.78299021
0.06012952
0.14109399
0.43483715
0.81110268
0.63953487
0.39939785
0.02981296
0.09056882
0.70773660
0.41363324
0.52783808
0.20615129
0.81716972
0.15113282
0.69790909
0.78954497
0.80586567
0.02190598
0.20860502
0.39835951
0.73897823
0.41354633
0.66803363
0.83781749
0.77078377
0.90332498
0.07568491
0.93947327
0.66312037
0.04071891
0.72246349
0.72324990
0.18181290
0.15730063
0.53435258
0.82134777
0.55669848
0.56416554
0.91191659
0.26443508
0.97779878
0.43975468
0.47058637
0.79496850
0.59088750
0.16849546
0.58451347
0.39675316
0.19040144
0.79311848
0.79511268
0.92937966
0.20666481
0.46314630
0.76719715
0.97744858
0.36647129
0.84288206
0.91692186
0.02959166
0.88360097
0.63938534
0.75284156
0.06541387
0.79668597
0.28719413
0.88676165
0.35338445
0.85135967
0.79867824
0.61781953
0.82915845
0.23843292
0.08840590
0.62412694
0.82932041
0.25690135
0.20864041
0.22607358
0.44730279
0.00175890
0.02118626
0.37668245
0.20842371
0.48433256
0.14387961
0.18587229
0.85080385
0.98676167
0.10279415
0.88039551
0.87036264
0.74217949
0.63323706
0.93577652
0.53886546
0.92043120
0.82253816
0.89224991
0.77179086
0.62121641
0.51006944
0.60094931
0.85964932
0.59847534
0.22507625
0.68896974
0.85537669
0.43371666
0.91504332
0.30267948
0.43547556
0.93622957
0.67936193
0.64389927
0.42056214
0.82324154
0.82977156
0.27136599
0.81000321
0.93256570
0.15176149
0.68036585
0.67474519
0.78499856
0.61614237
0.21361065
0.70542975
0.43868053
0.10586055
0.47722061
0.05989694
0.61592999
0.07816992
0.91954626
0.21440533
0.30324617
0.60851600
0.06978202
0.73696283
0.52355931
0.37246150
0.17243839
0.45978889
0.05182343
0.81633766
0.88035102
0.87506497
0.64610922
0.15171701
0.68506818
0.57867492
0.30347850
0.36543404
0.25342011
0.08847706
0.98157641
0.46703075
0.79390682
0.42025694
0.57289130
0.27112743
0.48015388
0.18882130
0.34929735
0.39970014
0.40322662
0.65254352
0.00821614
0.47300864
0.38950636
0.53177545
0.84547014
0.56194475
0.99156434
0.89729357
0.37828241
0.87191537
0.77235855
0.02439163
0.02363237
0.45742673
0.60306655
0.32711088
0.82286077
0.85648665
0.41558794
0.80443717
0.32351740
0.20949475
0.22469411
0.89640871
0.48062218
0.70484799
0.08523000
0.82991953
0.10454813
0.48845663
0.48246306
0.11276427
0.96146527
0.87196942
0.64453972
0.80693541
0.43391417
0.63610406
0.70422898
0.81219658
0.50801943
0.47658753
0.83658821
0.53165180
0.93401426
0.43965475
0.85876268
0.75687502
0.29614140
0.27435062
0.56131219
0.61965881
0.48384537
0.78600630
0.51606751
0.96446755
0.49085429
0.60129752
0.79438709
0.59540242
0.08975414
0.27685014
0.70816669
0.05121941
0.14881956
0.35270641
0.85815482
0.58273373
0.98881048
0.56238381
0.39493030
0.49682991
0.03897133
0.23151851
0.02848171
0.97298559
0.67117326
0.88724439
0.72986061
0.96731466
0.16159500
0.29117280
0.58697347
0.64544037
0.07717911
0.10304098
0.60990793
0.56803340
0.70433850
0.40429501
0.16343582
0.79409264
0.68114516
0.87160251
0.84531206
0.82996472
0.22430892
0.70346688
0.41269845
0.21311940
0.26585069
0.80762875
0.70994930
0.30482202
0.03914726
0.73843101
0.27780761
0.71032052
0.62567540
0.00766822
0.67763519
0.78727040
0.29884102
0.26460865
0.43271077
0.37602013
0.36764964
0.04261870
0.94405353
0.07198813
0.44691372
0.10748934
0.86608078
0.12805888
0.97909185
0.71139283
0.95802359
0.20340077
0.41485971
0.37072204
0.41652017
0.68071040
0.17835079
0.12646947
0.98553242
0.21749805
0.86490048
0.26334003
0.92781857
0.49057588
0.27100825
0.60545376
0.27784628
0.56984927
0.87006241
0.71055705
0.94586940
0.23771205
0.75317575
0.88992293
0.30970018
0.20008947
0.99741227
0.17578096
0.32814834
0.97650412
0.88717379
0.28617194
0.17990489
0.30203350
0.65689398
0.59642506
0.98274390
0.83524477
0.72289453
0.96827631
0.05274282
0.58779501
0.23161634
0.98056139
0.07837089
0.50262458
0.58601515
0.35621717
0.07247385
0.45607756
0.06677422
0.01834325
0.69378960
0.81994997
0.90826618
0.00348978
0.02003944
0.90567845
0.17927074
0.34818779
0.88218257
0.06644453
0.63435973
0.06208747
0.36847802
0.29125370
0.65851253
0.35122192
0.12649847
0.38140706
0.31949823
0.17924129
0.96920208
0.55111457
0.15980268
0.04757297
0.05373915
0.74581782
0.40379014
0.12621300
0.20189538
0.47056436
0.14455626
0.89568498
0.29051433
0.05282244
0.89917476
0.31055377
0.95850089
0.07844550
0.65874156
0.84068346
0.14489002
0.29310128
0.90277093
0.51336805
0.58435499
0.56128346
0.86458997
0.71085346
0.94269053
0.18408820
0.89009474
0.91189260
0.73520276
0.04989742
0.95946557
0.78894191
0.79571524
0.36325571
0.91515491
0.99761061
0.83382007
0.05971117
0.89329559
0.12433440
0.11253361
0.79247035
0.43488817
0.07103450
0.87091585
0.09362973
0.91171796
0.01580587
0.38673101
0.81448889
0.52917392
0.97108600
0.37577236
0.39376388
0.68193945
0.31846288
0.57785208
0.57203420
0.23035548
0.31305484
0.62193161
0.18982106
0.10199676
0.41764685
0.55307676
0.01715167
0.41525747
0.38689683
0.07686284
0.30855306
0.51123123
0.18939645
0.10102341
0.94611939
0.26043094
0.97193925
0.03974912
0.17214890
0.98774512
0.42648013
0.98663780
0.51691904
0.39756613
0.36241015
0.91068292
0.07950559
0.68087304
0.48853500
0.65153978
0.91122852
0.80158985
0.27347140
0.10104957
0.90358660
0.69111825
0.65412634
0.92073827
0.10637571
0.04102317
0.99760111
0.41492877
0.55225439
0.18699756
0.51595218
0.49837379
0.44742851
0.48789143
0.53812291
0.61957741
0.47563655
0.96460304
0.60621521
0.99255559
0.36216917
0.96862536
0.90323851
0.44167476
0.64949840
0.39177352
0.09321454
0.56072692
0.19336336
0.36668593
0.66177649
0.09694996
0.05780418
0.31590283
0.01768824
0.16417990
0.35692600
0.01528935
0.57910867
0.90918039
0.20228691
0.09506084
0.40755418
0.64971542
0.58295227
0.94567709
0.26929283
0.05858883
0.91028013
0.87550804
0.05114442
0.27244930
0.84413340
0.95438293
0.71412406
0.49363179
0.34615645
0.80733860
0.05435871
0.53951981
0.17402453
0.71613520
0.63646977
0.23182871
0.03203803
0.65415801
0.39600861
0.38896403
0.66944736
0.97511728
0.29814442
0.87173427
0.07017812
0.70569860
0.52144969
0.65313039
0.65137569
0.79074252
0.71171922
0.56165582
0.66625055
0.76286364
0.83410512
0.51038395
0.71724657
0.54822918
0.00401575
0.06340302
0.35556777
0.05837446
0.60292283
0.52959230
0.77450966
0.23939260
0.76142102
0.80654769
0.89355061
0.15742963
0.19551172
0.56299798
0.13254690
0.49365614
0.43473225
0.20272502
0.19935474
0.95618194
0.85585542
0.85073043
0.74692446
0.56757464
0.41238625
0.41317501
0.33043828
0.24649137
0.92355897
0.04768485
0.79472054
0.92757471
0.11108787
0.15028831
0.98594917
0.71401070
0.67988062
0.76045883
0.95340330
0.44130164
0.56700652
0.84695392
0.59873126
0.76251824
0.40995189
0.73127817
0.25617438
0.84468414
0.93400319
0.45552912
0.80086609
0.78985861
0.30625955
0.54779055
0.35743325
0.71864580
0.96096556
0.68787152
0.96513717
0.88452453
0.73555637
0.75985771
0.81209924
0.84664424
0.91014603
0.79804841
0.56065494
0.59002665
0.55850723
0.51405824
0.03132828
0.12551375
0.36101216
0.63005955
0.88803199
0.77096405
0.36133771
0.14420637
0.61564819
0.29534090
0.59973549
0.41651428
0.08519951
0.90599505
0.96430482
0.44263276
0.62464085
0.92527038
0.13050428
0.58977802
0.80979491
0.86606065
0.34963573
0.62189415
0.71270489
0.25978176
0.41994255
0.27335983
0.84980841
0.97844979
0.78741807
0.88113669
0.10396354
0.14843022
0.51119624
0.99199553
0.91939427
0.87253395
0.13620190
0.53504246
0.16787486
0.73593739
0.95155674
0.25307437
0.64193244
0.91586156
0.69570712
0.26657329
0.84113195
0.82621140
0.85635131
0.65092685
0.69227205
0.20598704
0.27282100
0.40497694
0.46576881
0.69276356
0.67833677
0.31557721
0.67121334
0.46575484
0.19671391
0.77517688
0.61418506
0.70791015
0.76717241
0.53357933
0.58044410
0.90337431
0.06862179
0.74831895
0.63931169
0.02017853
0.00139332
0.28124413
0.93604009
0.69710044
0.54781741
0.77717203
0.52331185
0.40416872
0.42809889
0.21558390
0.61015576
0.70091989
0.62056084
0.07592457
0.39368344
0.29889761
0.39150178
0.06489679
0.76465244
0.58821569
0.84007367
0.37883750
0.29612584
0.60724608
0.91241683
0.87656994
0.51062039
0.98103862
0.62488889
0.14993208
0.00121715
0.62628221
0.43117621
0.93725724
0.32338265
0.97899362
0.71442927
0.84669450
0.38316235
0.14252816
0.06227840
0.99331811
0.84344805
0.68283924
0.06924268
0.23713149
0.98173684
0.46074446
0.30202828
0.74638929
0.04896016
0.14210195
0.12522679
0.34508599
0.74934803
0.03764362
0.22165593
0.25996841
0.01868224
0.84654482
0.40990049
0.01989938
0.47282703
0.84107670
0.95715662
0.79620968
0.82007032
0.67158589
0.64290418
0.20323267
0.81411405
0.70518258
0.19655078
0.65756210
0.38802182
0.26579346
0.89469359
0.36975866
0.72653792
0.19672187
0.11614795
0.77549808
0.33882382
0.24137474
0.12058407
0.08817185
0.27901836
0.34224000
0.34814026
0.29770060
0.18878482
0.75804075
0.31759998
0.66161185
0.59911745
0.27475660
0.45782153
0.41918778
0.94634249
0.10072572
0.62242045
0.76045654
0.80590830
0.81897123
0.41801864
0.19393012
0.08476469
0.31271223
0.56368878
0.81130261
0.50943411
0.67983673
0.58680069
0.84825793
0.92121148
0.70738476
0.93642978
0.20022983
0.04962476
0.28457004
0.49793043
0.23840958
0.04261079
0.81553041
0.90002143
0.64172824
0.09028701
0.35784297
0.06091602
0.03662950
0.45856869
0.68333647
0.79708605
0.26447699
0.50230770
0.21510469
0.45840711
0.58707238
0.52781693
0.02209589
0.39837499
0.03725103
0.70193263
0.98517568
0.88550896
0.62314410
0.69256044
0.82193874
0.82337394
0.74218520
0.10650877
0.32130436
0.98059479
0.14911956
0.13683477
0.88061622
0.79084781
0.22712178
0.23845919
0.85176383
0.26375129
0.69702787
0.53510030
0.06083734
0.96150486
0.03740799
0.27594203
0.41991197
0.62448037
0.80375896
0.44200786
0.02285536
0.84100999
0.14394049
0.00803104
0.72651895
0.76708459
0.70059148
0.54845768
0.59045853
0.44277668
0.65496645
0.91176289
0.42337146
0.80408602
0.04859767
0.30398768
0.59493382
0.27571945
0.54244687
0.44669765
0.53947074
0.23947474
0.98179795
0.60030808
0.20097961
0.01920594
0.87625010
0.62089158
0.64368631
0.68000906
0.06289944
0.66654167
0.52101905
0.20683993
0.67457271
0.24753799
0.97392453
0.37516419
0.79599567
0.56438305
0.81794087
0.45096213
0.47614595
0.24131233
0.25504814
0.52474361
0.54530001
0.84998196
0.80046306
0.08774688
0.29667962
0.33993380
0.32722163
0.27847756
0.94024187
0.52820123
0.29768350
0.81649198
0.14909281
0.94136982
0.49650104
0.21199225
0.60791149
0.01752008
0.41883219
0.28248420
0.26505808
0.39275671
0.65764839
0.06105375
0.95713976
0.47558926
0.51201588
0.43328571
0.71690159
0.76706402
0.95802932
0.26220160
0.61704598
0.75849238
0.34994848
0.91372560
0.09842618
0.67717011
0.19220316
0.03866805
0.20537134
0.48988666
0.85516003
0.35446415
0.43125648
0.35166107
0.56645641
0.03916797
0.36918115
0.98528859
0.32165217
0.63423923
0.37804530
0.97930057
0.69529298
0.33518507
0.45488983
0.20730885
0.76847078
0.17179142
0.97437287
0.72650010
0.43399302
0.59141885
0.48499248
0.78394150
0.50514445
0.58341865
0.46111161
0.69734761
0.62208671
0.66648296
0.18723427
0.47724674
0.02094711
0.61849075
0.82890781
0.58740352
0.65765872
0.19808896
0.57269211
0.97931090
0.83232819
0.95073742
0.95861147
0.52762116
0.28592249
0.41350129
0.73493001
0.05439326
0.58529271
0.70930288
0.78089336
0.01928573
0.30072173
0.26588583
0.80322723
0.80586618
0.84930449
0.26433885
0.50321379
0.47139120
0.93082180
0.69044807
0.94863794
0.95176891
0.30893882
0.77754574
0.53917243
0.96659754
0.97563470
0.11186455
0.94590844
0.80796289
0.06260196
0.90451991
0.33558405
0.34852445
0.31802120
0.07051406
0.40291771
0.90331391
0.77981694
0.18381107
0.92259964
0.08053867
0.44969690
0.72582688
0.88640486
0.29900139
0.99016572
0.38961865
0.77039259
0.92098753
0.08006672
0.71903052
0.87275644
0.38900554
0.49657627
0.41192887
0.35560308
0.47221097
0.52379342
0.30151152
0.28017386
0.58639538
0.20603143
0.61575790
0.93491983
0.52405263
0.68627197
0.33783754
0.42736654
0.46608891
0.52164861
0.34996618
0.54662758
0.97134551
0.07579305
0.43303244
0.27034690
0.06595878
0.82265109
0.04073949
0.98694630
0.90271780
0.75977001
0.85970274
0.29172334
0.25634628
0.27163162
0.64732642
0.72855725
0.79542504
0.94883794
0.00873110
0.38182042
0.15486937
0.62448901
0.31674025
0.67892200
0.31076097
0.65457779
0.10628854
0.77684988
0.17622639
0.45625472
0.32347746
0.14757190
0.53204777
0.75650990
0.41791880
0.59800655
0.57916099
0.45865829
0.58495285
0.48187879
0.21842831
0.44465560
0.77360213
0.47477459
0.71628721
0.42092855
0.20333183
0.51171225
0.36976650
0.21206294
0.89353267
0.52463587
0.83655194
0.21027291
0.20355787
0.14731292
0.86485070
0.30984641
0.92416279
0.04107709
0.76610113
0.24764025
0.18864899
0.29814890
0.00415015
0.60656780
0.89615545
0.58331114
0.06522609
0.48110830
0.06518993
0.28365440
0.92576389
0.83879206
0.75842898
0.64205111
0.25972061
0.96176082
0.15376335
0.62948711
0.17382375
0.04729602
0.15412298
0.01037569
0.25756893
0.35768085
0.15768861
0.12241963
0.66752726
0.08185140
0.16349672
0.43362838
0.32949166
0.35214571
0.73177728
0.33364181
0.95871351
0.62793273
0.91695295
0.02393960
0.10904102
0.98214288
0.30759400
0.03480492
0.82093494
0.06602298
0.67685603
0.08065555
0.02778379
0.83061938
0.71014266
0.20160755
0.87791540
0.86426565
0.21198324
0.13548433
0.22194650
0.36967185
0.25790396
0.88947376
0.45152325
0.42140068
0.32310214
0.78101491
0.77354639
0.05487942
0.11465672
0.73225989
0.68281214
0.03160966
0.75619949
0.79185317
0.01375254
0.06379348
0.82665808
0.83468748
0.12981646
0.50351411
0.91534303
0.15760026
0.33413349
0.62548570
0.35920780
0.21204889
0.48975134
0.57119104
0.34753322
0.71169784
0.94086289
0.60543718
0.60117159
0.39238614
0.02683785
0.92427373
0.17340105
0.80038424
0.97915315
0.28805777
0.53264413
0.66196529
0.31966743
0.28884362
0.45381846
0.33341998
0.35263710
0.28047654
0.16810746
0.48245357
0.78399065
0.08345049
0.64005383
0.11812414
0.70893618
0.99926163
0.33017303
0.19868753
0.57045267
0.67770625
0.91038537
0.51131557
0.28314343
0.51155696
0.90370171
0.30998128
0.43583069
0.07710276
0.11036552
0.41498384
0.36516054
0.64300965
0.07694913
0.68482797
0.93185327
0.53076759
0.01824795
0.28449037
0.81124414
0.18635540
0.76694394
0.59523479
0.26980589
0.40699777
0.71335893
0.97874207
0.40625940
0.04353196
0.17742960
0.97671207
0.72123821
0.08781497
0.48802764
0.00438164
0.59937193
0.39172935
0.31436293
0.03520262
0.46883211
0.42472845
0.45018646
0.83399265
0.06773810
0.52713560
0.51882062
0.99959137
0.05790319
0.53706856
0.28408175
0.86914733
0.72342397
0.05102569
0.46438212
0.99322986
0.45802345
0.17774105
0.97197193
0.86428285
0.22127301
0.14940153
0.84099492
0.94251122
0.23721649
0.32902256
0.94689287
0.83658842
0.72075190
0.26125580
0.87179104
0.18958402
0.68598425
0.32197750
0.02357667
0.75372235
0.84911310
0.54239728
0.75331372
0.90701629
0.07946585
0.03739547
0.77616362
0.80288982
0.08842116
0.24054574
0.79611967
0.54644461
0.41828678
0.76809160
0.41072746
0.63955979
0.91749313
0.25172238
0.58207102
0.15470962
0.58074494
0.52896389
0.99129804
0.30149684
0.79021968
0.86308908
0.49108086
0.47620393
0.18506658
0.51465752
0.22992628
0.03417969
0.05705481
0.98324000
0.94119598
0.13652066
0.02063547
0.71735960
0.93941047
0.10905663
0.95790534
0.73553014
0.65550124
0.37619212
0.50362174
0.06622870
0.01575192
0.42111487
0.31795107
0.59782293
0.57582449
0.89869601
0.12678682
0.56712252
0.20019285
0.91700650
0.43021160
0.69127371
0.39321043
0.61527819
0.20593123
0.62313671
0.64945787
0.26298604
0.60637671
0.59065386
0.39950670
0.62701218
0.30801346
0.33891717
0.73606881
0.26591880
0.07444732
0.39157004
0.64211092
0.57806906
0.45779874
0.65786284
0.99918392
0.77574981
0.25568577
0.57500841
0.67444583
0.38247259
0.14213093
0.87463868
0.29947909
0.57234254
0.56591239
0.69268952
0.18762073
0.77184362
0.31582623
0.83707860
0.03482966
0.92220295
0.42773246
0.43433636
0.54921513
0.73574591
0.77325353
0.28528394
0.00166471
0.84770085
0.67685398
0.64377563
0.42576991
0.13465272
0.30163847
0.42495383
0.91040254
0.55732423
0.99996224
0.58484836
0.93979682
0.14209318
0.45948704
0.23927591
0.71443571
0.02539942
0.93196543
0.90205644
0.79724304
0.24779166
0.73913504
0.83207271
0.16999461
0.16686749
0.26640907
0.71920973
0.90261341
0.03966260
0.00449367
0.90427812
0.88736345
0.68134765
0.54805375
0.31313336
0.81600037
0.84969221
0.73808719
0.72640291
0.40701644
0.73804943
0.31125127
0.34681326
0.88014261
0.77073831
0.58608917
0.59457832
0.79613773
0.51805460
0.49663476
0.59338077
0.76584626
0.23576980
0.42545348
0.93584086
0.40263729
0.69186255
0.65505060
0.30525070
0.73152516
0.65954427
0.20952881
0.61888861
0.34089192
0.75758256
0.93202197
0.15689230
0.60727477
0.67010916
0.88329520
0.01429121
0.40815859
0.19454647
0.36110448
0.28830120
0.96528478
0.94719365
0.88287952
0.76142251
0.46524825
0.37951428
0.35480328
0.23109451
0.61528407
0.78025676
0.16693537
0.01792136
0.47211931
0.82198597
0.32317206
0.20364447
0.48153024
0.53270087
0.82253308
0.82242216
0.29028343
0.75455505
0.97931446
0.89755820
0.42466421
0.86260966
0.91184942
0.83282280
0.05715614
0.27295390
0.12112400
0.02244091
0.22014755
0.00400352
0.78386342
0.68539579
0.38351780
0.13866670
0.91649030
0.99880187
0.91892347
0.08342567
0.01672324
0.39104278
0.90541164
0.33989530
0.59468725
0.38694188
0.87259617
0.41722033
0.20936404
0.16287961
0.17177538
0.18867850
0.06043781
0.59643959
0.05128817
0.97228723
0.42926239
0.10844430
0.24524113
0.55038640
0.13088521
0.46538867
0.55438992
0.91474864
0.15078446
0.93790772
0.05341534
0.06727476
0.93670959
0.97233881
0.15070043
0.95343283
0.36338159
0.05611208
0.29332813
0.95806884
0.44305396
0.16592430
0.37528917
0.65241800
0.32880391
0.54706455
0.84109650
0.38924172
0.14350415
0.89238467
0.36152895
0.57276654
0.00082897
0.60677007
0.12315293
0.13171418
0.07215874
0.67754285
0.04646282
0.22294321
0.61545057
0.09987816
0.29021797
0.55216015
0.07221696
0.44091841
0.50559298
0.43559855
0.49703048
0.79892111
0.39366739
0.94008444
0.96484540
0.76895656
0.59250244
0.29364931
0.31602112
0.43359894
0.68289103
0.45952526
0.32598361
0.04441997
0.03229180
0.32681257
0.65119005
0.15544474
0.45852675
0.72334879
0.83298759
0.50498957
0.94629199
0.44843815
0.60486773
0.23650996
0.00059831
0.67708469
0.67742837
0.50619129
0.11268324
0.17445885
0.30511239
0.50635064
0.11454329
0.26995780
0.27530720
0.70704572
0.56360711
0.59132832
0.14064466
0.24649814
0.05085358
0.46662827
0.29091811
0.08314539
0.79344084
0.94210815
0.23859012
0.25196759
0.66545694
0.07157771
0.75695717
0.61174893
0.52001587
0.36182490
0.84825890
0.52061418
0.03890959
0.52568727
0.02680546
0.15159283
0.70014612
0.33191786
0.65794347
0.81468940
0.60187565
0.93325067
0.52173512
0.16548276
0.52457898
0.66237978
0.41198090
0.57543257
0.12900805
0.70289901
0.65857795
0.92244889
0.64500716
0.89716807
0.17441648
0.31046410
0.96874579
0.93137365
0.92221303
0.48876165
0.29319855
0.77047193
0.00937583
0.33210813
0.29615919
0.03618129
0.48370097
0.99630531
0.36809915
0.14164443
0.81099471
0.96997480
0.07489510
0.33272983
0.13545756
0.59947408
0.99510962
0.54743846
0.17490665
0.12411767
0.25033747
0.83348460
0.04656656
0.89534462
0.73065267
0.22098304
0.20580872
0.69939846
0.15235669
0.12802175
0.18816011
0.44555524
0.89849368
0.19753593
0.77766338
0.19465288
0.23371723
0.26136434
0.19095819
0.60181637
0.40300877
0.00195290
0.57179118
0.47790387
0.33468273
0.70724874
0.07737795
0.32979235
0.25468720
0.25228459
0.45391002
0.50502466
0.08576919
0.50047658
0.40036929
0.81642186
0.72145962
0.60617801
0.51582032
0.87381632
0.73419976
0.70398042
0.31937156
0.63269345
0.90151636
0.09703493
0.82734632
0.13523358
0.35839927
0.01830451
0.73704996
0.76140805
0.02025741
0.30884113
0.23931191
0.35494014
0.01608987
0.31668986
0.68473250
0.27077707
0.56897445
0.13864252
0.77580173
0.65474364
0.63911910
0.17617102
0.47116550
0.36057872
0.78234903
0.98698582
0.23439504
0.51654879
0.69096624
0.55376660
0.14924224
0.59248260
0.65080153
0.97658856
0.72771619
0.00920080
0.99489307
0.46476615
0.77060885
0.01515048
0.77360728
0.00992076
0.37009062
0.78969715
0.32661063
0.05482312
0.06047422
0.89558508
0.19346564
0.83627595
0.55032872
0.83258473
0.01244697
0.02149423
0.19316346
0.79479600
0.00848005
0.42755849
0.31134479
0.69944629
0.98132509
0.46058703
0.29192889
0.63212662
0.43717559
0.01964508
0.64132743
0.43206866
0.48441123
0.41193628
0.44721914
0.25801851
0.42185704
0.81730976
0.04771566
0.74846767
0.87213288
0.10818988
0.64405275
0.06559852
0.94446583
0.19438147
0.89818325
0.95691280
0.21587570
0.09134671
0.75170880
0.22435575
0.51890520
0.06305360
0.92380204
0.50023029
0.52364062
0.21573093
0.13235691
0.96081621
0.23537601
0.77368434
0.39288487
0.71978724
0.18562061
0.84010401
0.97780575
0.60747765
0.65741377
0.02552141
0.35594532
0.52954665
0.13371129
0.99999806
0.59514517
0.07817711
0.19437953
0.49332842
0.03508992
0.41025523
0.58467512
0.78679872
0.63461098
0.10358032
0.84985232
0.55841301
0.60381061
0.37349294
0.77414395
0.73616752
0.33430915
0.00951996
0.50985186
0.72719402
0.72930720
0.69547247
0.56729803
0.70711296
0.30295012
0.22471180
0.73263437
0.65889544
0.75425845
0.86634565
0.65889350
0.34940361
0.94452277
0.85327304
0.84273203
0.97961268
0.26352827
0.42740716
0.76641140
0.89813925
0.53098748
0.61626372
0.45655226
0.13479809
0.98975666
0.23069621
0.87096562
0.32406581
0.24021617
0.38081747
0.05125983
0.96952337
0.07628994
0.61855786
0.67663633
0.37924007
0.84326966
0.40927069
0.03813550
0.59752811
0.27561634
0.69702901
0.94693172
0.22013911
0.55030205
0.78966375
0.19975179
0.81383032
0.21707091
0.96616319
0.71196956
0.74805839
0.58242691
0.16852182
0.88285648
0.57218356
0.39921803
0.75382210
0.89624937
0.63943419
0.13463958
0.94750920
0.60895757
0.21092952
0.56606706
0.28559389
0.59016958
0.40933672
0.69486459
0.62830509
0.00686483
0.97048093
0.32533410
0.95379655
0.19062004
0.87563614
0.74346030
0.39037183
0.68946646
0.96053121
0.35653502
0.40143602
0.70858960
0.93896193
0.56995785
0.59144609
0.51114550
0.96917588
0.34526819
0.40739487
0.60861007
0.47990776
0.35490407
0.21756764
0.69083728
0.92097113
0.50316153
0.28100687
0.33030785
0.19802611
0.90931196
0.33717268
0.16850704
0.23464605
0.29096922
0.35912708
0.11028220
0.03442953
0.74949891
0.79974866
0.99496074
0.10603393
0.20118468
0.70355034
0.04499587
0.77114253
0.29499642
0.55614136
0.74031841
0.64026461
0.96353623
0.34892848
0.12017237
0.31844030
0.56649611
0.81100965
0.23941143
0.06965764
0.09201652
0.56971928
0.26768376
0.00132848
0.90689196
0.43619080
0.23597453
0.19786118
0.79531788
0.34625673
0.23229071
0.54481680
0.14600539
0.22725144
0.65085073
0.34719007
0.93080178
0.69584660
0.11833260
0.22579820
0.25198796
0.85865101
0.86606281
0.21552419
0.20757949
0.98623518
0.53396449
0.77407560
0.79724484
0.77337591
0.84373325
0.88926136
0.34309520
0.11141700
0.89058984
0.24998715
0.54760781
0.12656437
0.44784834
0.34292569
0.47282109
0.68013904
0.88774249
0.61882648
0.90739049
0.53859322
0.96601655
0.83819227
0.23443981
0.08434916
0.06399047
0.48642777
0.94300017
0.93005328
0.70195195
0.15057966
0.91628847
0.23591644
0.92465526
0.71353331
0.00929235
0.76838851
0.60279467
0.35238755
0.87980551
0.49338450
0.60237470
0.42741332
0.61994887
0.05022304
0.77033901
0.09276996
0.73036208
0.65808149
0.71159644
0.63775257
0.19667471
0.67761299
0.47594484
0.43111452
0.76196215
0.53993531
0.91754229
0.70496232
0.46998859
0.61949424
0.85554197
0.38627706
0.85541068
0.78019723
0.09981036
0.86470303
0.54858574
0.70260503
0.21709058
0.42839125
0.19598953
0.81946529
0.85580456
0.81593839
0.86968832
0.62614357
0.90870835
0.60005040
0.28422506
0.62030480
0.23780297
0.48089976
0.29791779
0.71374781
0.91201428
0.05987994
0.25368311
0.82955657
0.76484226
0.72367170
0.44905081
0.62038423
0.10994876
0.30446149
0.40058146
0.20975912
0.16916452
0.94916720
0.91236414
0.38625510
0.37755844
0.10835367
0.20572039
0.23336300
0.92429206
0.07540871
0.85950657
0.83300042
0.67545911
0.14373163
0.45330522
0.91326209
0.62463139
0.75122301
0.62700989
0.53664567
0.81110295
0.88069301
0.36620224
0.57594520
0.60436471
0.81525305
0.19632943
0.71431346
0.11971454
0.59691090
0.92407258
0.28887906
0.54607809
0.83643672
0.67513416
0.92363654
0.94479039
0.88085455
0.15699954
0.86908246
0.95626326
0.01650611
0.70208288
0.63172238
0.16023774
0.15538809
0.54498446
0.78486913
0.90661110
0.17199436
0.32151481
0.71771405
0.05268736
0.68771705
0.29365925
0.65705207
0.50297010
0.48998868
0.37136554
0.62268464
0.08689958
0.29543812
0.91156370
0.63297767
0.13187484
0.58669787
0.55661421
0.07666524
0.46755242
0.71361375
0.94574770
0.42381568
0.73011987
0.64783057
0.05553806
0.89035761
0.80321867
0.60052252
0.67522674
0.70982976
0.77251688
0.99674155
0.42754381
0.82520425
0.68445860
0.72120306
0.48225632
0.18742870
0.21119174
0.85362186
0.81011334
0.29809132
0.14905997
0.72167705
0.93106900
0.28093482
0.30837491
0.48768321
0.35760005
0.77592733
0.20129696
0.30334775
0.19974301
0.93141683
0.95117832
0.25528107
0.82177443
0.75439699
0.85580359
0.49700117
0.46422676
0.62832047
0.49374272
0.89177056
0.45352472
0.17820132
0.61297362
0.93578104
0.36563003
0.82416537
0.78940289
0.17574337
0.12225669
0.93846286
0.89742042
0.05332569
0.21939768
0.20579533
0.54100890
0.57699774
0.98172266
0.74230586
0.88034549
0.18146567
0.67372269
0.83152381
0.43674674
0.49549712
0.58592080
0.29255033
0.99249830
0.05014756
0.92087081
0.48624102
0.94191812
0.37439552
0.66444234
0.55489174
0.31017656
0.03007237
0.37905711
0.09957945
0.20581574
0.50131380
0.03804231
0.10323616
0.55463949
0.25743999
0.30903149
0.09564838
0.83443773
0.29075415
0.83795425
0.71478322
0.47221982
0.51167693
0.54630703
0.90896656
0.00717406
0.13222783
0.20151689
0.99967236
0.18237538
0.12238770
0.48591338
0.12429351
0.49678322
0.15035572
0.67918525
0.80695978
0.18042809
0.05824236
0.90653922
0.38624383
0.55955616
0.94458154
0.48947999
0.11419564
0.20202153
0.79851148
0.20984403
0.03645926
0.08926563
0.04779827
0.75124247
0.56148545
0.55947521
0.29754950
0.47045201
0.56664927
0.42977733
0.67196890
0.56632162
0.61215271
0.79435659
0.05223500
0.73644622
0.29113981
0.20259072
0.41563147
0.09809959
0.38301881
0.47387382
0.00463881
0.76926265
0.03342998
0.94922035
0.25874264
0.14762563
0.15124188
0.05725412
0.35746966
0.18770114
0.14651975
0.40526793
0.93894361
0.70800520
0.96474314
0.23649311
0.17845720
0.53139241
0.66627044
0.85042610
0.09771403
0.27842315
0.64478270
0.14994903
0.01486937
0.93592251
0.35253975
0.43050083
0.03402210
0.73555856
0.90437466
0.03866091
0.50482121
0.93780464
0.98788126
0.76356385
0.08543027
0.13912315
0.82081797
0.44289992
0.32682428
0.96733771
0.84816785
0.26576790
0.67534291
0.81291099
0.50226101
0.85380011
0.34430340
0.16853145
0.70422622
0.44201743
0.44695460
0.34900891
0.59196646
0.46182397
0.28493142
0.94450620
0.89232480
0.31895352
0.68006476
0.79669946
0.35761443
0.18488597
0.73450410
0.34549569
0.94844982
0.81993437
0.48461884
0.76926778
0.26283429
0.81144313
0.73660550
0.11100214
0.07721102
0.41194841
0.92391313
0.57947203
0.26574852
0.26821653
0.74800348
0.96997474
0.71023396
0.19495807
0.31898365
0.30220041
0.65678204
0.60391507
0.24670662
0.54910684
0.92286859
0.92677138
0.34580630
0.28048302
0.11165735
0.08031040
0.62597871
0.06010717
0.90024476
0.11059755
0.82937495
0.16307905
0.92204068
0.56598045
0.27408119
0.99925170
0.97792886
0.19799433
0.57872373
0.24367738
0.46621086
0.32672720
0.21365212
0.17644482
0.52168528
0.53263577
0.47864523
0.17846732
0.13655083
0.72535185
0.72757416
0.05941942
0.65212323
0.07338045
0.33990243
0.76378059
0.15369085
0.96588114
0.82388776
0.05393561
0.07647869
0.65326271
0.21701466
0.99851937
0.21924316
0.49109585
0.99777107
0.19717202
0.68909018
0.57649480
0.44084940
0.15530104
0.90322200
0.65450151
0.33174586
0.42490728
0.18713728
0.81039109
0.60337460
0.32368811
0.53574294
0.33094875
0.38310753
0.18786618
0.40432921
0.72300996
0.95164676
0.55802006
0.68889111
0.77553452
0.61195567
0.76536980
0.42879722
0.82897033
0.76388917
0.64804038
0.32006618
0.76166024
0.84521240
0.00915636
0.33815503
0.28606179
0.16445740
0.24137703
0.94056331
0.49620326
0.66628431
0.12770058
0.30659435
0.26965891
0.45138870
0.84233730
0.60060767
0.83449623
0.03020347
0.00493687
0.55750619
0.98185023
0.56295693
0.24639729
0.75738475
0.17491260
0.01176709
0.18618197
0.00388293
0.77565626
0.83422235
0.32394911
0.53731650
0.67943475
0.33310548
0.87547153
0.96549654
0.49756288
0.11684857
0.90605985
0.99376614
0.78313288
0.03376043
0.30036050
0.05279179
0.48514913
0.14269779
0.65339946
0.31964536
0.17290127
0.65833633
0.87715154
0.15475150
0.22129326
0.12354884
0.91213625
0.39620586
0.13531593
0.09831822
0.40008878
0.91097219
0.93254058
0.72403790
0.44828869
0.61197533
0.05714337
0.32376023
0.57747187
0.55470626
0.44060879
0.48353172
0.54847240
0.22374167
0.51729216
0.84883290
0.27653347
0.00244129
0.99153069
0.92993292
0.32208664
0.16443196
0.58826925
0.19923819
0.31918346
0.80956251
0.32278702
0.23131971
0.20576837
0.45810295
0.32963793
0.60585715
0.36907514
0.26217851
0.32989505
0.81736384
0.87415384
0.38703843
0.14112406
0.45162571
0.94174468
0.58173285
0.93515743
0.49021708
0.80547453
0.45244958
0.33904998
0.08200799
0.45489087
0.33058068
0.01194092
0.77697751
0.49501264
0.60021017
0.97621570
0.81419610
0.40977268
0.29900272
0.04551581
0.61554105
0.75710567
0.37515374
0.22139820
0.12618082
0.63733225
0.55129326
0.94354465
0.51148608
0.93833168
0.08466871
0.96311179
0.88007637
0.66640157
0.89826922
0.37029345
0.47187609
0.35071881
0.70934343
0.55388409
0.80560968
0.03992411
0.56582500
0.58258719
0.53493675
0.16603517
0.55880288
0.34913284
0.57580785
0.85780560
0.39464865
0.19134890
0.61491128
0.76980239
0.41274711
0.74109209
0.40713464
0.96404036
0.68463675
0.91862072
0.90237204
0.76930546
0.88173252
0.78244841
0.43570703
0.78000174
0.15274186
0.90758312
0.13072054
0.86208529
0.46146721
0.93633022
0.90200940
0.02729221
0.51891741
0.43694615
0.19332738
0.07772029
0.78607899
0.76913524
0.93552590
0.18072764
0.96048414
0.55043717
0.95053003
0.37323125
0.29152927
0.35766467
0.33727161
0.97616601
0.27628539
0.23964365
0.74547147
0.15801790
0.02209206
0.18117850
0.93801964
0.17483392
0.08876162
0.06874018
0.03691921
0.55022883
0.00507040
0.93892860
0.57752104
0.52398781
0.37587475
0.77084842
0.60170811
0.16195374
0.53998366
0.53723400
0.34268138
0.50046780
0.08767118
0.29321141
0.87369904
0.37920044
0.65087608
0.21097065
0.35536645
0.92716147
0.45061430
0.10083793
0.08517937
0.47270636
0.28201642
0.02319901
0.64754028
0.37077804
0.09193919
0.68445948
0.92100686
0.09700960
0.62338809
0.49852790
0.62099741
0.99926284
0.26937632
0.22270552
0.16121657
0.80935998
0.75993952
0.50389795
0.30982777
0.84761070
0.79710936
0.18352682
0.22681114
0.44798544
0.39449747
0.58217759
0.37514691
0.84511177
0.68301552
0.46032628
0.31781813
0.96503194
0.48352529
0.96535841
0.33580998
0.57546448
0.64981789
0.25681684
0.67247408
0.27320597
0.75534474
0.29347149
0.27246881
0.02472107
0.51617701
0.43368538
0.83408104
0.27611653
0.93758334
0.14390882
0.12372722
0.73469270
0.32743564
0.35053836
0.18267814
0.72193310
0.93271595
0.55782505
0.56704487
0.61573147
0.01815133
0.88486300
0.58076341
0.50167662
0.85022141
0.91657339
0.07714110
0.50003930
0.17339023
0.74961518
0.77324527
0.92873497
0.04308667
0.04571408
0.95345604
0.55926368
0.47939946
0.78753708
0.83538021
0.41698280
0.93144590
0.95910743
0.15167550
0.25888154
0.30964579
0.33435364
0.98081464
0.24236174
0.89217870
0.54785951
0.85809321
0.91033002
0.43272252
0.43885662
0.41200664
0.28294393
0.35543000
0.48914774
0.78298322
0.52882023
0.23876292
0.55622849
0.45755520
0.28184959
0.60194257
0.41101124
0.84111327
0.08134203
0.19854832
0.67649348
0.49832482
0.12999422
0.63560091
0.65000032
0.38887575
0.94524670
0.98435397
0.36969039
0.18760844
0.87653266
0.91754991
0.04570165
0.78686268
0.35027242
0.48455826
0.19886932
0.63321635
0.83998827
0.68801706
0.41619957
0.36880849
0.92677998
0.97242806
0.82636369
0.20862957
0.57437063
0.23737493
0.04974284
0.65571265
0.43592325
0.72623632
0.15403748
0.56591747
0.36183723
0.80403780
0.95479322
0.30708392
0.78839176
0.32448361
0.49469236
0.66492442
0.24203352
0.54039401
0.45178711
0.59230594
0.02495227
0.65065643
0.22552229
0.86494053
0.33867349
0.64172187
0.23374903
0.26545348
0.61414993
0.06011272
0.47408305
0.18852056
0.29748765
0.52382589
0.84423321
0.73341090
0.25006221
0.99827069
0.29932837
0.61189944
0.80230849
0.25412159
0.91898336
0.59070025
0.57860520
0.41367572
0.25562467
0.82063872
0.95406972
0.70741177
0.41294467
0.97902199
0.35806820
0.63846696
0.84396252
0.69674170
0.28018883
0.07771155
0.96219517
0.89433876
0.13782427
0.43627822
0.08285932
0.43531193
0.96010412
0.92709253
0.16872283
0.21016633
0.92536322
0.46805120
0.82206577
0.72767170
0.72217279
0.74104913
0.31837195
0.30077799
0.15472484
0.57399662
0.12141672
0.10879457
0.28140839
0.53436138
0.08781656
0.63947660
0.17282834
0.93177909
0.33621829
0.45301717
0.00949064
0.29841347
0.34735593
0.14731491
0.73469169
0.43021525
0.58262684
0.69479581
0.35730778
0.75134967
0.90496214
0.28267099
0.21940087
0.72702790
0.01034270
0.94157366
0.46807703
0.32871465
0.24235165
0.62280188
0.90271126
0.36376837
0.73159644
0.18411966
0.89812975
0.81941300
0.82359625
0.07095809
0.75119209
0.15981454
0.52397527
0.76068273
0.45822801
0.87133120
0.90799764
0.19291970
0.30154644
0.49062447
0.88771551
0.65885422
0.24197414
0.79267765
0.94152522
0.46137501
0.51970555
0.95186791
0.40294867
0.98778258
0.28058256
0.64530032
0.61058446
0.18329382
0.00906869
0.34218090
0.36741348
0.90719844
0.16159390
0.19100973
0.97815653
0.91278599
0.35082427
0.50213180
0.67346872
0.80905228
0.37346299
0.58146635
0.00197199
0.67500944
0.07209083
0.88968750
0.33386366
0.31406497
0.68236515
0.27538888
0.77543997
0.20207070
0.22725679
0.17838864
0.18985328
0.50783935
0.82368896
0.80043774
0.69113317
0.83275765
0.14261863
0.05854664
0.73995608
0.30421254
0.24955637
0.71811262
0.21699853
0.60038064
0.22024441
0.89046725
0.40943293
0.59370741
0.47193360
0.41140491
0.26871685
0.54402443
0.30109241
0.60258051
0.85808939
0.98345756
0.87796939
0.63352937
0.18552826
0.10522617
0.81191801
0.37538154
0.61306552
0.63560697
0.17581927
0.30419869
0.46836461
0.31843791
0.36274534
0.20832070
0.62265044
0.61230171
0.92643331
0.83964897
0.21268235
0.14667772
0.73011622
0.62211528
0.74038513
0.20204982
0.03352019
0.00910198
0.74607425
0.33461260
0.61168249
0.60416364
0.31807016
0.48965187
0.23769301
0.50359842
0.59487805
0.04961102
0.87897995
0.20794357
0.68521799
0.05479922
0.51214226
0.15358260
0.37323713
0.87488759
0.36190330
0.99588757
0.48718930
0.28833661
0.83553655
0.69987165
0.43501433
0.56565277
0.32198693
0.17539946
0.76770259
0.35550712
0.18450144
0.51377684
0.69011972
0.79618393
0.11794048
0.00818988
0.28583580
0.35563349
0.51178830
0.88071384
0.40524451
0.39076826
0.08865741
0.09046249
0.44556748
0.60079967
0.24404509
0.81880461
0.47568726
0.60594839
0.81469219
0.96287657
0.89428500
0.65022873
0.66274822
0.32929933
0.21588150
0.98473515
0.50469879
0.98358408
0.34024226
0.68920023
0.49736092
0.03036199
0.48538416
0.61530140
0.03855187
0.77121995
0.97093488
0.55034018
0.65193380
0.37617939
0.94110843
0.74059121
0.46664188
0.38667592
0.34139088
0.71068698
0.20548053
0.81707814
0.31663536
0.02017271
0.77995471
0.21092036
0.67040144
0.44270292
0.54021969
0.88628294
0.42743807
0.04491847
0.86986702
0.76768033
0.73411870
0.36722794
0.79804232
0.21950286
0.98252934
0.83659419
0.99072281
0.95346422
0.38693437
0.64265661
0.32964361
0.32804281
0.38324781
0.79628550
0.71471872
0.72463869
0.50697247
0.92019925
0.54171683
0.82360784
0.94037197
0.32167154
0.03452820
0.61077341
0.76437446
0.57474788
0.49705635
0.19181253
0.61966636
0.36692337
0.95949286
0.35378506
0.73415131
0.75753518
0.57328792
0.71668065
0.59412938
0.56401073
0.67014487
0.98106375
0.20666734
0.99978848
0.30910655
0.58991515
0.79607397
0.02382527
0.31455384
0.30304644
0.94402453
0.85627068
0.12665428
0.88439649
0.17794222
0.16118248
0.49516990
0.94231668
0.73593036
0.99222625
0.13412920
0.35559672
0.35914962
0.09362207
0.70938178
0.09330093
0.85115725
0.28266971
0.80998158
0.44528662
0.84668044
0.48012644
0.42635037
0.05334778
0.47991492
0.73545692
0.64326293
0.27598889
0.75928219
0.95781678
0.57903533
0.70330672
0.81408746
0.70568962
0.58770321
0.99202967
0.86687210
0.08287311
0.93434635
0.60280246
0.07509936
0.06847555
0.95839918
0.43424898
0.16209762
0.66778096
0.52754991
0.01325486
0.95045067
0.33753148
0.45854149
0.79713111
0.81765792
0.88489185
0.85047889
0.29757284
0.62034877
0.49374182
0.57356173
0.37963097
0.45155860
0.15259706
0.08293769
0.26564606
0.85828668
0.67064090
0.25767573
0.72515877
0.75351401
0.19202208
0.32796123
0.82861336
0.26049763
0.28636041
0.26286234
0.42259525
0.95414138
0.79041224
0.43585011
0.90459205
0.12794373
0.89439160
0.70172316
0.94560165
0.77928345
0.55220205
0.24317449
0.39963222
0.04594387
0.81673622
0.77926319
0.49750247
0.96933328
0.86220088
0.76314853
0.82761996
0.53284177
0.02082425
0.55277874
0.28635578
0.21284633
0.88073997
0.11496914
0.47334396
0.16710038
0.37783148
0.89593920
0.12124176
0.16824372
0.33178931
0.02583381
0.29618745
0.22618091
0.72755696
0.24178910
0.00546436
0.27975901
0.48496359
0.40509658
0.32570288
0.30169981
0.18435977
0.82320535
0.27103309
0.04656064
0.58635388
0.09865305
0.57940241
0.60717813
0.65143179
0.86575819
0.82002446
0.53217176
0.98072733
0.29336842
0.69927214
0.35855880
0.18930762
0.82051390
0.52680253
0.52109693
0.84634770
0.82298997
0.74727784
0.57390467
0.06477907
0.75274220
0.85366368
0.54974265
0.15783878
0.17936656
0.85144246
0.34219854
0.00257191
0.12247555
0.38875919
0.58892579
0.22112860
0.96816160
0.19610392
0.87256039
0.83391979
0.01612839
0.40473215
0.81464712
0.30949680
0.10400429
0.17320593
0.49880442
0.92451819
0.70000845
0.01990135
0.77086589
0.52299842
0.76717919
0.34477056
0.58777749
0.51992139
0.19843424
0.13752014
0.67776017
0.37780080
0.98896260
0.01995871
0.38037272
0.11143815
0.40871790
0.96929851
0.33256676
0.37687950
0.16540244
0.20512715
0.21079929
0.18153082
0.60985930
0.02544641
0.49102763
0.71386359
0.19865234
0.98983205
0.63838178
0.89866079
0.00973340
0.40924767
0.42165921
0.77691260
0.75401823
0.00943670
0.29683399
0.95245247
0.14695684
0.97459415
0.33025328
0.13591944
0.99455287
0.71062600
0.24735760
0.40327076
0.67992451
0.57992435
0.78015026
0.84532695
0.78505150
0.99094956
0.02685777
0.39491080
0.01639597
0.51788540
0.10877439
0.21504830
0.50771744
0.74715617
0.11370909
0.51745085
0.15640384
0.53536830
0.29436344
0.91042207
0.54480500
0.59119743
0.86287455
0.69176184
0.56579158
0.19312783
0.82768129
0.56034444
0.90375383
0.07503889
0.96361521
0.58367834
0.65496324
0.74376547
0.42900529
0.44001474
0.73471503
0.45586306
0.83492555
0.75111099
0.97374846
0.94369994
0.96615930
0.48146590
0.69085611
0.07986839
0.99891675
0.84725995
0.61523669
0.29328019
0.75768202
0.16004170
0.88447761
0.62055657
0.85180354
0.45026919
0.81368440
0.67948483
0.01061364
0.71743823
0.75452371
0.97422884
0.30111656
0.40948695
0.71799432
0.73012185
0.84950170
0.45270934
0.18598491
0.68442724
0.20382033
0.15973336
0.62812718
0.16997963
0.64119926
0.31898329
0.24984802
0.64011601
0.16624324
0.86508472
0.93339620
0.92392526
0.02512641
0.81787381
0.54448184
0.87692995
0.26814300
0.35816624
0.55641478
0.27875664
0.07560446
0.31093849
0.25298548
0.37672102
0.72042545
0.97097980
0.10684287
0.56992714
0.42368914
0.29282778
0.25435439
0.62750947
0.45256114
0.88248157
0.79748911
0.09376040
0.20146486
0.04733713
0.73387641
0.36770810
0.91242185
0.66727261
0.29163336
0.93754826
0.48514642
0.83611520
0.81447822
0.75328942
0.19428143
0.37089300
0.03204605
0.26988589
0.68183149
0.28503154
0.64660692
0.40225694
0.25601133
0.75344979
0.97218408
0.67970047
0.04627757
0.22653847
0.30720995
0.49883871
0.10902004
0.10469905
0.59259911
0.31048490
0.15203619
0.32647553
0.67819299
0.06445803
0.99374814
0.96982636
0.00200630
0.47889455
0.80594155
0.81648451
0.23218397
0.00022298
0.18737751
0.26423003
0.27010888
0.86920900
0.54926156
0.91671580
0.27146593
0.80527290
0.67016558
0.24365001
0.48497337
0.71644315
0.47018848
0.79218332
0.21528186
0.57920852
0.89688237
0.80788098
0.88969341
0.04891856
0.13435650
0.56788641
0.11337659
0.12810464
0.53771276
0.11538289
0.60699919
0.34365431
0.93186740
0.83918317
0.34387730
0.11924491
0.10341319
0.61398618
0.98845391
0.65267475
0.53070197
0.25991984
0.45794765
0.20086756
0.50356985
0.94292102
0.91731071
0.97375833
0.73510434
0.13259257
0.55296685
0.63198671
0.94047354
0.44266026
0.68090527
0.07483005
0.01054667
0.79428186
0.20293469
0.54825943
0.90966475
0.80993388
0.89191374
0.84153216
0.64911704
0.23579104
0.96077706
0.75253024
0.84977722
0.94923097
0.40520499
0.38047919
0.20915081
0.86315264
0.58134675
0.71272065
0.80607367
0.49865746
0.68647898
0.54117801
0.63125002
0.23944583
0.17316472
0.57172357
0.68210609
0.85406999
0.64655361
0.69265276
0.64835186
0.84948830
0.24091218
0.55801661
0.65942218
0.13282593
0.39954877
0.30853922
0.36861697
0.36032583
0.06106946
0.21839419
0.30955680
0.46627445
0.59887338
0.51870760
0.32942709
0.18022013
0.23142826
0.13550076
0.67887759
0.91790724
0.67667877
0.31012761
0.15735307
0.84984349
0.88185118
0.83945916
0.70391348
0.52840480
0.53211191
0.35226534
0.37789310
0.77302410
0.91028195
0.03731528
0.90585003
0.30983072
0.34585450
0.27446700
0.67015655
0.40692396
0.49286119
0.97971335
0.87319841
0.09173457
0.49842095
0.20262551
0.27195471
0.72984921
0.33812627
0.95083229
0.64775645
0.01480503
0.26095991
0.80510952
0.86464852
0.14281109
0.64456868
0.56856200
0.67121588
0.17668059
0.92082734
0.04910898
0.94970469
0.83110929
0.08642426
0.85555472
0.14094000
0.43227876
0.13002172
0.81109655
0.83920272
0.62288290
0.79080989
0.71240113
0.71461748
0.28923084
0.91502664
0.98657218
0.01908005
0.25315291
0.93740448
0.66683650
0.26795794
0.19836438
0.47194602
0.13260646
0.34117547
0.11651470
0.70116846
0.01239135
0.29319530
0.62199580
0.06150033
0.24289999
0.45310508
0.14792459
0.09845471
0.59404508
0.58020334
0.22847642
0.40514163
0.41940606
0.85135933
0.19595152
0.13180719
0.56597680
0.48518236
0.04683383
0.55254898
0.50426242
0.29998674
0.48995346
0.17109892
0.56794468
0.68831784
0.64304494
0.70055114
0.02949331
0.75955965
0.40171960
0.04188466
0.05275494
0.02371540
0.10338499
0.29565493
0.47682048
0.25130958
0.39410964
0.07086556
0.83151292
0.62258606
0.47600719
0.25091898
0.47394539
0.67195871
0.38272618
0.03992219
0.15714108
0.42956001
0.59247118
0.66140349
0.72954675
0.08242464
0.83250241
0.29749143
0.77074248
0.47554735
0.99804257
0.80023579
0.23510700
0.39976217
0.84212045
0.28786194
0.42347757
0.94550544
0.58351687
0.90029805
0.19681502
0.97762651
0.97116361
0.02832794
0.60021258
0.44717080
0.27924692
0.07415797
0.11912951
0.66197310
0.11408016
0.27627059
0.09153311
0.70655134
0.93767408
0.82107986
0.78897598
0.77017649
0.11857128
0.55971846
0.24572384
0.11661385
0.35995425
0.48083084
0.51637602
0.20207470
0.76869278
0.93985358
0.14758014
0.35220965
0.84015163
0.34439516
0.32983617
0.81131524
0.37272310
0.93004874
0.25848604
0.65197002
0.00420671
0.37761555
0.31394312
0.11828688
0.65388614
0.40547623
0.82483822
0.59156022
0.22655609
0.61381420
0.36173671
0.34512737
0.17353266
0.60746055
0.46174122
0.53348691
0.08829139
0.97811724
0.73556161
0.85698417
0.91797082
0.88314175
0.20919382
0.75812245
0.22753690
0.53902999
0.56943768
0.60026000
0.46907873
0.82792372
0.25223002
0.47328545
0.20553927
0.56617315
0.59157232
0.85942541
0.97164938
0.41641054
0.45098563
0.19820546
0.03022474
0.81272234
0.54333283
0.20375741
0.42018289
0.00507405
0.73724432
0.50847428
0.98319129
0.47280593
0.36545844
0.90116211
0.35594768
0.57465227
0.65928455
0.58348458
0.11368225
0.22872224
0.18374458
0.58276098
0.05664596
0.43597461
0.05604643
0.26218523
0.00214775
0.64761875
0.12161064
0.97379713
0.06402929
0.57259627
0.17200259
0.09425404
0.38531861
0.71533543
0.29801144
0.80550150
0.72040948
0.03525576
0.31397577
0.70360077
0.50806169
0.67943422
0.60476288
0.86400937
0.25408648
0.26404743
0.44749395
0.36776873
0.49276967
0.63123853
0.95052972
0.54941563
0.06721314
0.00657614
0.81160086
0.06936089
0.65419489
0.93321150
0.04315802
0.71822419
0.50580777
0.21516061
0.81247822
0.89112638
0.93049604
0.11048967
0.69662787
0.65090553
0.14574543
0.01060364
0.35450630
0.65380712
0.69003786
0.95926918
0.51781649
0.94412434
0.22331662
0.96531044
0.31189307
0.71608629
0.59654898
0.26242279
0.26550192
0.66376212
0.26899893
0.07710278
0.73312301
0.92319383
0.01031428
0.77628103
0.64141801
0.51612205
0.99144164
0.45389624
0.40724842
0.92193768
0.56438591
0.10387630
0.57284321
0.71013134
0.11447994
0.92734951
0.36393846
0.80451780
0.88661869
0.88175496
0.74864214
0.10993531
0.84706540
0.06053521
0.82602159
0.44361438
0.32295800
0.09152351
0.10737649
0.59195693
0.16862628
0.84049950
0.51515076
0.17894056
0.61678052
0.15656877
0.69506261
0.60822217
0.61046501
0.10231103
0.53015985
0.17485091
0.20618733
0.10300306
0.88498225
0.32066727
0.03035257
0.24892071
0.12518507
0.91697126
0.13067567
0.87382721
0.02690657
0.97774107
0.93436242
0.85292816
0.42135545
0.25732042
0.94445167
0.52873194
0.84927735
0.11307795
0.36923144
0.36442811
0.29201851
0.98601196
0.52099688
0.98708112
0.59423413
0.13146188
0.08939215
0.12439398
0.30631280
0.29557948
0.22739704
0.19129505
0.61624676
0.25774961
0.44021576
0.74143183
0.17472087
0.57089143
0.61525904
0.20162744
0.54863250
0.54962146
0.05455560
0.96998795
0.80694188
0.99900727
0.49871989
0.65621923
0.11208522
0.86795133
0.02064734
0.40410373
0.85396329
0.54164422
0.39118486
0.44819741
0.67310610
0.48057701
0.57259139
0.97941890
0.77615650
0.79998843
0.17071395
0.39240325
0.05773803
0.61092971
0.13383508
0.23245890
0.18182114
0.74909411
0.43408634
0.73045365
0.29871557
0.48864194
0.70044160
0.10565746
0.48764920
0.19916149
0.76187669
0.59973442
0.06711282
0.78252403
0.00383815
0.92107611
0.32416825
0.39502301
0.36927352
0.99727436
0.87560002
0.94186491
0.97669326
0.65175651
0.74185334
0.14740720
0.04415976
0.79959137
0.75833691
0.17799484
0.03205028
0.94015805
0.92708896
0.46613662
0.67061170
0.22580453
0.95477855
0.37105330
0.33146199
0.44242775
0.57021479
0.09333868
0.04216217
0.63732760
0.87586271
0.04600032
0.55840371
0.20003097
0.44102333
0.92767723
0.19730532
0.31662335
0.86954214
0.17399858
0.96837986
0.61139548
0.32140578
0.01253963
0.41098685
0.07974269
0.19053447
0.44303713
0.01990074
0.11762343
0.90917374
0.69051244
0.34342796
0.86395230
0.06156574
0.67488994
0.30638005
0.63178053
0.76822862
0.34854222
0.26910813
0.64409134
0.39454255
0.82751184
0.84412230
0.83556588
0.75518907
0.04142763
0.15218923
0.62473120
0.21542620
0.12056909
0.23612668
0.53683199
0.13310872
0.64711353
0.61657468
0.32364319
0.09015066
0.63647542
0.44126661
0.99932440
0.32698787
0.78469457
0.86327670
0.38855361
0.45958452
0.16965674
0.02033413
0.22781314
0.51819897
0.28944226
0.87190448
0.91274151
0.11695410
0.71602678
0.74830739
0.87214317
0.75745440
0.90049661
0.49687437
0.97288061
0.02106570
0.73300105
0.50971259
0.15417442
0.38011458
0.12628727
0.47781761
0.47026524
0.76276269
0.91908422
0.46958964
0.08975056
0.70377879
0.33286633
0.47830416
0.16336331
0.50252308
0.49863830
0.39117645
0.02072204
0.78808056
0.26308092
0.93346355
0.90503466
0.97910770
0.68177094
0.77717783
0.73656211
0.58226755
0.27405220
0.70944272
0.60333326
0.00705325
0.21915531
0.75750768
0.38716783
0.34544258
0.23532529
0.85743307
0.10820527
0.15440951
0.32702271
0.19795583
0.85818831
0.65988904
0.67625999
0.02155162
0.16241211
0.17489828
0.41272806
0.18313416
0.96297884
0.67580899
0.11659771
0.86801350
0.65491669
0.79836865
0.64519133
0.39147880
0.38063620
0.91924353
0.10092151
0.98396946
0.92629678
0.32007682
0.74147714
0.31346461
0.66551940
0.97680243
0.17089767
0.77372467
0.13121194
0.49792038
0.97168050
0.98940024
0.15780942
0.64794048
0.01095186
0.32022153
0.82283877
0.42367992
0.50335569
0.78581761
0.09948891
0.61995340
0.65383111
0.75440561
0.41832205
0.29902244
0.14588440
0.79895825
0.21826597
0.24680592
0.78292771
0.14456274
0.56688274
0.52440484
0.45802735
0.23240214
0.50120727
0.62892502
0.00612681
0.63241921
0.12684540
0.97780730
0.62181945
0.28465482
0.62574779
0.63277131
0.60487636
0.44858655
0.05645123
0.10823205
0.23440416
0.15594015
0.72818545
0.88823527
0.91034575
0.14650750
0.18725771
0.05623016
0.94546574
0.40552368
0.30303607
0.72839345
0.55008642
0.86991881
0.25279829
0.00811377
0.10232095
0.75400556
0.63703879
0.10844775
0.38642477
0.76388420
0.08625505
0.00824422
0.04853902
0.71200284
0.64101553
0.65341538
0.16058939
0.69746677
0.76164743
0.39499355
0.85340691
0.48983288
0.28322882
0.76375267
0.63634037
0.47048654
0.81998282
0.58180612
0.87601022
0.12301890
0.31019957
0.42609664
0.99293771
0.56299786
0.43421041
0.09525865
0.31700343
0.07124921
0.20370640
0.70342820
0.83513340
0.28996146
0.71167242
0.88367243
0.00196430
0.35268795
0.53708781
0.16255369
0.05015471
0.29873524
0.55754724
0.90356163
0.78856812
0.84077606
0.66731430
0.42490849
0.31126260
0.48729712
0.00671460
0.18727282
0.61031602
0.31691417
0.61336946
0.60325372
0.87991203
0.04757987
0.69851237
0.19691546
0.11882908
0.90221878
0.90034366
0.95396248
0.19218024
0.61201608
0.83763491
0.19414453
0.96470402
0.37472272
0.35669822
0.01485874
0.67345796
0.91424546
0.91842036
0.46202607
0.75502152
0.58573466
0.88693456
0.06628412
0.07303178
0.89364917
0.25355694
0.68334779
0.21056334
0.86692640
0.28660152
0.09047537
0.91450628
0.98511389
0.28739083
0.03333535
0.88733267
0.18773449
0.98729784
0.07951290
0.79975057
0.82493275
0.27365743
0.76445459
0.19965547
0.63035565
0.77931333
0.87311342
0.54460111
0.69773369
0.33513950
0.29962263
0.28346835
0.22207406
0.36590675
0.35650013
0.11572322
0.61946369
0.03984792
0.32628656
0.48639009
0.32644943
0.41676193
0.40089637
0.31156332
0.70415276
0.43423172
0.19889599
0.89188725
0.42152956
0.27840889
0.69163782
0.24646231
0.55206633
0.45609241
0.44611778
0.18242198
0.23540573
0.31923120
0.72702309
0.93313942
0.65437070
0.02664571
0.21660777
0.87644475
0.39255246
0.57310790
0.99216797
0.01201615
0.61295582
0.31845453
0.49840624
0.93940526
0.73521647
0.89930261
0.25096858
0.43936923
0.33353433
0.44986457
0.33125648
0.75506389
0.72827346
0.02289430
0.00152620
0.28033979
0.47898671
0.44764397
0.46276177
0.71439245
0.76687517
0.18978486
0.64753187
0.42124587
0.21643057
0.86413964
0.29769062
0.60898303
0.43724754
0.28985859
0.62099918
0.05020336
0.60831313
0.11940542
0.98960862
0.34352959
0.01870803
0.24057720
0.78289882
0.35224236
0.69044177
0.11415531
0.10730625
0.41871523
0.13704961
0.10883244
0.69905502
0.61603632
0.55647641
0.16181680
0.33042877
0.32335159
0.35160165
0.97796064
0.74459745
0.56803223
0.84210028
0.04228807
0.17701526
0.27934782
0.33214667
0.79801444
0.32955119
0.94045979
0.91741987
0.31915981
0.28398939
0.93612790
0.55973701
0.06688821
0.28837026
0.25017877
0.18104352
0.39567650
0.66889401
0.31809312
0.50450895
0.36794903
0.93412945
0.06098536
0.52976583
0.26455821
0.38433695
0.88136748
0.24251885
0.12893440
0.44939971
0.08461913
0.17122247
0.62641497
0.36396695
0.50336914
0.42442941
0.69351814
0.44382893
0.34184928
0.01267795
0.72781832
0.27797718
0.57241496
0.79470653
0.56634743
0.82259373
0.97575005
0.96202394
0.49148774
0.29384317
0.46653288
0.85943677
0.22797262
0.52751825
0.38920259
0.49253083
0.91185519
0.27057007
0.73504968
0.04078959
0.71996978
0.81966880
0.21201207
0.34638475
0.18363576
0.71538121
0.77081416
0.87715390
0.15921014
0.11266344
0.88983185
0.88702846
0.39064061
0.46224680
0.68173499
0.95698805
0.28484053
0.65748504
0.91901198
0.77632827
0.95132821
0.38554487
0.63576503
0.17930083
0.91306311
0.02496763
0.67183166
0.82491831
0.29553770
0.40688133
0.86570790
0.01550748
0.22655014
0.07771997
0.36189222
0.41018589
0.79310118
0.13270638
0.28733979
0.95231132
0.24536982
0.17717164
0.83933978
0.63601043
0.63941844
0.52107477
0.59299847
0.92425897
0.17855981
0.51201046
0.70058724
0.12988802
0.89755533
0.33635228
0.30918885
0.81061844
0.36131990
0.98102050
0.63553675
0.65685760
0.38790183
0.50124465
0.67236507
0.61445197
0.57896462
0.03425730
0.02463786
0.37206580
0.16696368
0.31197765
0.32437711
0.41233349
0.48914929
0.16371689
0.04834392
0.12856773
0.68479166
0.64134239
0.05282671
0.86335146
0.15335285
0.75341395
0.99323948
0.05090818
0.08976622
0.30242833
0.86152662
0.45108612
0.28344883
0.49706336
0.10794372
0.67135066
0.99830802
0.78030879
0.28580263
0.57727264
0.81456609
0.31044050
0.94933844
0.98152977
0.62241815
0.27371555
0.39386326
0.11156744
0.43743244
0.44220718
0.24013517
0.12222409
0.08354957
0.29296188
0.98557556
0.23690242
0.04637583
0.97881504
0.28781060
0.13614205
0.28124336
0.14933722
0.58722818
0.56469219
0.64640058
0.69517190
0.23604285
0.64470860
0.47548069
0.52184549
0.22198123
0.29004678
0.83228598
0.17131967
0.27157655
0.45470413
0.44503522
0.66543980
0.56627157
0.88246766
0.10764698
0.80640675
0.00469175
0.19119655
0.09936863
0.99026731
0.42809897
0.14574446
0.96908234
0.71590957
0.28188651
0.25032571
0.86524679
0.86911469
0.81501790
0.51164737
0.56428659
0.05106075
0.15635597
0.03976728
0.57290624
0.37833720
0.32981406
0.40519222
0.54965687
0.60139061
0.85989635
0.99469209
0.26683041
0.42616793
0.87715975
0.37447739
0.23257468
0.88185150
0.56567394
0.33194331
0.87211881
0.99377291
0.47768777
0.84120115
0.70968248
0.75957428
0.09152686
0.57492927
0.62868897
0.90654476
0.08657664
0.19297556
0.95760551
0.24293261
0.23274284
0.53051175
0.62126982
0.56255690
0.93570397
0.17092669
0.16394750
0.79560032
0.16561878
0.43077791
0.22176825
0.04277852
0.80525530
0.45434293
0.92463002
0.37092924
0.78628624
0.79674883
0.36470215
0.26397401
0.63794998
0.07438463
0.02354829
0.72947683
0.64931391
0.65223726
0.63602159
0.73589055
0.84521282
0.59362709
0.97882316
0.07795566
0.12413884
0.60009298
0.64051256
0.05984281
0.77101966
0.80446006
0.85544313
0.93663844
0.23523798
0.07721138
0.97941697
0.04049328
0.53155431
0.90404699
0.41142252
0.31784055
0.70079581
0.77612466
0.58181456
0.33874579
0.85050930
0.60536285
0.06822262
0.49982320
0.25760011
0.70424421
0.23571375
0.10281294
0.29787130
0.21453691
0.18076860
0.42201014
0.81462989
0.82128116
0.48185295
0.58564956
0.62574122
0.33729608
0.52228800
0.86097920
0.41450747
0.50170497
0.90147247
0.94606178
0.40575195
0.31289499
0.26390233
0.10654777
0.08901965
0.84571689
0.44529356
0.93952895
0.45107974
0.51351618
0.43935215
0.70867986
0.21776039
0.67506591
0.81149279
0.51563169
0.88960282
0.99226139
0.93764184
0.70423271
0.81354255
0.41949479
0.28988227
0.43928377
0.75679087
0.81217027
0.30026296
0.17129834
0.31387523
0.20173544
0.11736012
0.71962719
0.51463043
0.38126245
0.82617496
0.60365008
0.22697935
0.27146852
0.54317903
0.67805909
0.78498470
0.98253118
0.38673895
0.00274509
0.65759709
0.19823174
0.51837678
0.54719991
0.19049313
0.45601861
0.25143262
0.00403568
0.87551340
0.54131489
0.44331944
0.63230428
0.35348516
0.74358241
0.80360262
0.66736039
0.94531784
0.92096274
0.38698758
0.45994827
0.30222519
0.21316254
0.06359835
0.52920454
0.48463106
0.60677738
0.20726363
0.26961576
0.58930856
0.59400257
0.27236084
0.24690565
0.79223431
0.79073762
0.79410556
0.98272744
0.24675624
0.04553818
0.98676312
0.12226964
0.58685307
0.43008256
0.75457392
0.94033823
0.17366497
0.55817653
0.60769862
0.11898282
0.47913927
0.99468621
0.57893109
0.78136447
0.20784875
0.64252944
0.31056901
0.69247981
0.24930682
0.51783263
0.96209557
0.83861538
0.11183521
0.23445641
0.08552103
0.90406952
0.02519403
0.87962660
0.88679696
0.27195027
0.92516478
0.87356008
0.39421991
0.51201785
0.30364264
0.14879382
0.45235608
0.47730761
0.70697036
0.06005471
0.59629043
0.18610963
0.05474092
0.17522152
0.96747410
0.26258967
0.81775095
0.27804310
0.95506948
0.06705777
0.79587574
0.91716504
0.90567315
0.90771094
0.15162145
0.99119419
0.81178046
0.17681548
0.87082078
0.69857742
0.44876575
0.79598556
0.57213750
0.84298566
0.30800342
0.87578014
0.99177948
0.76035950
0.35308775
0.69874984
0.82041421
0.94937818
0.88485947
0.87515513
0.12459970
0.85233357
0.13774479
0.94235065
0.13037668
0.09281427
0.00940842
0.92625241
0.00997931
0.91508157
0.83396336
0.16160076
0.90627576
0.64574382
0.33841624
0.77709654
0.34432124
0.78718200
0.57308210
0.91645874
0.63016766
0.88108552
0.79223888
0.62194714
0.64144502
0.14532663
0.32069698
0.46185922
0.09470481
0.20555646
0.33701435
0.21930451
0.05789003
0.47475914
0.16165517
0.18826670
0.56757341
0.17106359
0.11451912
0.57755271
0.08614516
0.94848247
0.73915347
0.99242092
0.59422629
0.07756972
0.76951746
0.93854753
0.86475172
0.34259956
0.85500626
0.49491937
0.22368508
0.64724514
0.11686652
0.86513009
0.79257177
0.43756350
0.32698931
0.88727659
0.64311996
0.66400366
0.10658110
0.70100999
0.13876280
0.26823627
0.88927669
0.70633621
0.43929986
0.00379581
0.28388892
0.52544502
0.95227828
0.02304240
0.51786593
0.54650457
0.10061211
0.28738339
0.48505210
0.96536383
0.62998295
0.34005836
0.46028320
0.85366802
0.98730350
0.57714972
0.71879812
0.77987527
0.01471322
0.04578743
0.66715186
0.65783318
0.70979109
0.77373296
0.35884316
0.84855389
0.04196923
0.24811985
0.55489010
0.48126908
0.25191566
0.83877903
0.00671410
0.20419394
0.86182142
0.52458003
0.75069851
0.96243354
0.81196342
0.23575061
0.92779737
0.44194637
0.57580897
0.38808057
0.29561440
0.56311248
0.96523029
0.01441251
0.34298775
0.97994351
0.06019994
0.01013961
0.63777668
0.76999103
0.78387257
0.99661984
0.61854493
0.82584179
0.24473970
0.17343503
0.30711088
0.49665535
0.01221405
0.31382498
0.70084930
0.87403548
0.83840501
0.45154781
0.83646901
0.65036843
0.68729842
0.76426638
0.09231480
0.26310739
0.15234695
0.38792920
0.82621987
0.11757724
0.40234171
0.16920762
0.09752074
0.46254165
0.17934723
0.73529743
0.23253268
0.96321980
0.73191727
0.85107760
0.78906159
0.97665696
0.02451263
0.09617247
0.47331232
0.03672669
0.40999744
0.17416161
0.91076216
0.24840245
0.62570942
0.74723118
0.89877088
0.31300784
0.51149756
0.99108568
0.57611524
0.66384451
0.37901487
0.40233511
0.78142174
0.78135658
0.57154273
0.87894249
0.24389823
0.75088995
0.61423991
0.47643091
0.71410975
0.34615718
0.32750851
0.50317134
0.32281414
0.35202114
0.59934381
0.79612646
0.38874783
0.00934125
0.97028808
0.29951000
0.25774370
0.59599750
0.04674117
0.15651458
0.90900534
0.55823873
0.14760026
0.48512057
0.22208323
0.52661513
0.88745568
0.00350498
0.30797171
0.45899841
0.88244746
0.55186994
0.20988836
0.49668738
0.02830085
0.92399811
0.84284456
0.35580936
0.42716945
0.16565870
0.70783050
0.02651326
0.96178516
0.09657833
0.03585452
0.93207324
0.39608833
0.29359822
0.52807074
0.44282950
0.45011280
0.43707608
0.00106823
0.59771306
0.92219665
0.22315146
0.12432819
0.80965233
0.22665644
0.43229990
0.26865074
0.10910390
0.98416985
0.47853910
0.60579128
0.01247069
0.40253721
0.44863583
0.36828005
0.82970667
0.61429454
0.07611055
0.85621993
0.57607970
0.17268889
0.89207445
0.50815294
0.56877722
0.18567266
0.03622368
0.01160672
0.63578546
0.47329976
0.01267494
0.23349852
0.39549641
0.23582640
0.35782671
0.20514874
0.46248284
0.79012662
0.47379948
0.57158674
0.77429646
0.95233858
0.17737802
0.78676715
0.35487579
0.62601385
0.15504720
0.18458246
0.24030839
0.23115776
0.04080239
0.81638809
0.40384664
0.93287683
0.32454103
0.97262386
0.11854950
0.36076471
0.98423057
0.75433496
0.83406447
0.99690552
0.98783348
0.22956088
0.23273192
0.34566019
0.43470962
0.69521476
0.13578681
0.90850911
0.26680150
0.91008327
0.86084769
0.44417952
0.69685042
0.21572348
0.07019338
0.85189763
0.40030593
0.31050177
0.08305538
0.44110832
0.12688986
0.48690203
0.37398515
0.45143089
0.45952589
0.49253465
0.81219560
0.44375646
0.24686961
0.64626007
0.44066198
0.23470309
0.87582096
0.67339390
0.58036328
0.31053058
0.36860866
0.71615009
0.21903969
0.63541016
0.62623336
0.07988737
0.07958968
0.32308378
0.29561085
0.14978306
0.17498141
0.69591678
0.46028482
0.25803680
0.13702510
0.58717468
0.74493883
0.51101026
0.03860557
0.20446471
0.00354491
0.85080117
0.64822117
0.25041452
0.49706125
0.08888315
0.48511761
0.37288220
0.76227705
0.06548089
0.68341278
0.13088571
0.78163098
0.90245247
0.76629587
0.40786434
0.98233984
0.84588555
0.73094813
0.27795069
0.99566861
0.90592954
0.97386747
0.45595343
0.16396633
0.11089258
0.04312811
0.90890516
0.62190283
0.08173368
0.11336987
0.62544774
0.93253485
0.76159105
0.87586226
0.42959610
0.85047420
0.36097986
0.80247830
0.61275125
0.42646075
0.48589108
0.74363695
0.20809173
0.38834355
0.50993282
0.61595607
0.37068339
0.35581837
0.34690420
0.64863408
0.35148698
0.25283374
0.62250155
0.80744041
0.41680007
0.73339413
0.85056852
0.32570523
0.35529696
0.93230220
0.43907511
0.98074470
0.86483706
0.20066615
0.85660696
0.29443315
0.05114035
0.21758682
0.09691145
0.66389160
0.64404757
0.58280253
0.40752855
0.85213930
0.97114608
0.91746137
0.46809538
0.34182947
0.27327974
0.81499958
0.99046355
0.62476672
0.06783332
0.61296510
0.43220714
0.48463339
0.34635922
0.28277566
0.81033863
0.70165619
0.21507786
0.24941373
0.68240089
0.07991492
0.45007989
0.53900785
0.37434807
0.50122024
0.75659467
0.47125952
0.16511183
0.40064224
0.05406205
0.57264038
0.25278154
0.02520813
0.49010175
0.72087692
0.36703760
0.76338149
0.53587650
0.35750115
0.38814822
0.60370981
0.97046624
0.82035535
0.08834320
0.31682546
0.10313101
0.89868183
0.01848165
0.31820887
0.14809556
0.70088254
0.39812379
0.59817545
0.23989039
0.77247186
0.09939568
0.99648506
0.24373138
0.26450752
0.39712730
0.29779343
0.83714790
0.64990884
0.32300157
0.32724965
0.37078576
0.69003917
0.09063114
0.90666225
0.04754031
0.47877936
0.51037207
0.01800655
0.29913471
0.59871527
0.33483201
0.40226572
0.49739710
0.35331366
0.72047460
0.64549266
0.05419620
0.11859839
0.24366810
0.29408659
0.89107024
0.34306379
0.29057165
0.13480162
0.60757130
0.68769895
0.43259506
0.44471920
0.33760779
0.75559662
0.77196885
0.70839355
0.44563579
0.86259999
0.61505580
0.49317610
0.34137935
0.12542787
0.51118265
0.64051406
0.72414314
0.84601467
0.04277979
0.22154023
0.19932833
0.76325438
0.86703289
0.25352453
0.88185277
0.11070099
0.54761113
0.77292301
0.45376478
0.83818277
0.90772464
0.06133609
0.52588172
0.34031969
0.50605529
0.86348951
0.09591632
0.27802414
0.57188305
0.54155210
0.14062413
0.18693885
0.03472820
0.48200348
0.31236672
0.54591086
0.12251755
0.03650986
0.39192552
0.16529733
0.25805009
0.59125385
0.92855172
0.12508298
0.84477838
0.81040448
0.23578397
0.39238951
0.58332749
0.68954875
0.23057228
0.49105213
0.75088484
0.75645400
0.83137182
0.25694013
0.61994351
0.92728814
0.53496426
0.19182657
0.46884024
0.67558840
0.37876542
0.50356845
0.15759188
0.69113214
0.04947930
0.28010943
0.72764200
0.44140482
0.44540676
0.98569209
0.03265867
0.37395848
0.11077507
0.87743706
0.18436296
0.34655904
0.26982657
0.76769046
0.03610780
0.50039885
0.25874259
0.78699264
0.25685285
0.09011441
0.04393276
0.87679637
0.01740255
0.57889703
0.06862293
0.48624279
0.25448542
0.44738836
0.98981124
0.41207730
0.13852050
0.03929054
0.69218673
0.86616250
0.48069536
0.13759349
0.85185459
0.51335404
0.51155197
0.96262966
0.39079110
0.69591493
0.30918871
0.66061766
0.46360539
0.34529650
0.16101651
0.72234797
0.13228914
0.41786936
0.81246238
0.17622190
0.29466573
0.82986493
0.75511893
0.36328866
0.31610772
0.00960436
0.81067702
0.30591896
0.42168166
0.94919752
0.34520950
0.11386839
0.81536003
0.82590486
0.25146188
0.66721462
0.33925890
0.76301385
0.62984429
0.73004999
0.45892879
0.93903299
0.39066765
0.92253417
0.28432950
0.55168416
0.64488215
0.41661864
0.96955353
0.45734453
0.59284054
0.26421926
0.28720946
0.34795948
0.62750792
0.60331718
0.35756383
0.43818494
0.90923613
0.77924549
0.38738247
0.25444563
0.89311388
0.20274250
0.08035049
0.14457576
0.86995712
0.41960938
0.90758961
0.49980140
0.14965938
0.36651840
0.43883439
0.54032703
0.28905257
0.72316389
0.09201119
0.93393471
0.13978253
0.06156472
0.39127924
0.73262307
0.32578398
0.67848870
0.08058255
0.95329190
0.28180587
0.43814638
0.39147684
0.19104201
0.21739186
0.77885931
0.44548763
0.11050574
0.98160181
0.52583812
0.25508150
0.85155892
0.94544751
0.16267111
0.35136032
0.09510688
0.52918951
0.79019472
0.63543391
0.81824207
0.51335861
0.72744511
0.75217679
0.65314114
0.78900983
0.14345603
0.38576421
0.11479381
0.82194473
0.46634675
0.06808571
0.10375060
0.90449313
0.45956255
0.29479261
0.12188499
0.23842186
0.74028024
0.23239073
0.22002367
0.26611836
0.48747223
0.07158259
0.21156587
0.65014334
0.42294292
0.30667275
0.17933285
0.21313763
0.94210666
0.99757492
0.72649624
0.66955177
0.74975171
0.37963738
0.45856160
0.89320774
0.76540158
0.57335541
0.71515247
0.23174834
0.64144111
0.81890307
0.13624146
0.10100366
0.11369568
0.25812646
0.33942552
0.85397592
0.49051719
0.55944919
0.12009428
0.97798942
0.63103178
0.33166015
0.62813277
0.05397470
0.63833290
0.80746562
0.26711233
0.58043956
0.80504054
0.99360857
0.24999133
0.55479225
0.37324595
0.70855293
0.44799999
0.13864753
0.28190834
0.16315246
0.37039587
0.92334945
0.98205553
0.50663733
0.02435311
0.09575120
0.76476379
0.36377864
0.94972712
0.25528098
0.92322783
0.06982140
0.23327040
0.55425961
0.40148155
0.86140317
0.60823431
0.03981444
0.66886879
0.87534664
0.62025401
0.47390933
0.86895522
0.87024534
0.02870157
0.24220117
0.57879827
0.47670156
0.38084870
0.86070661
0.63985402
0.75124457
0.78405606
0.62190954
0.25788190
0.80840917
0.71766075
0.02264569
0.17218781
0.66738787
0.27792667
0.09541564
0.73720927
0.51119707
0.64967525
0.13869081
0.37260024
0.25790956
0.17850526
0.04146903
0.13325620
0.79875926
0.51537835
0.00221142
0.66900460
0.54407993
0.24441258
0.24780287
0.02078149
0.62526128
0.10850948
0.66063551
0.37650585
0.89256554
0.28254505
0.63438775
0.70097471
0.00020579
0.65703344
0.87316252
0.66759366
0.93496010
0.96857815
0.40480293
0.44615717
0.61825340
0.54349374
0.81875741
0.87616296
0.72199900
0.86022644
0.00941916
0.52075826
0.37560479
0.01163058
0.18976286
0.91968472
0.25604316
0.43756573
0.94046621
0.88130444
0.54607521
0.60110171
0.25781029
0.43864075
0.88364676
0.89219804
0.13961546
0.88385255
0.54923147
0.01277797
0.55144621
0.48419157
0.98135613
0.95624914
0.93034874
0.59960953
0.49974288
0.74910616
0.47577249
0.22174187
0.60933259
0.48519165
0.74250013
0.98493739
0.49682222
0.93226299
0.90462211
0.75286538
0.36982871
0.84508831
0.63416982
0.91590392
0.44619003
0.89198011
0.35454466
0.32983679
0.78417815
0.49416012
0.21368934
0.33340962
0.50693809
0.76513555
0.81760119
0.48829422
0.72138469
0.74794994
0.08790375
0.22112756
0.49705609
0.56367624
0.44286943
0.10638869
0.04886788
0.18536956
0.09132607
0.54569011
0.11763255
0.99594818
0.29855549
0.48746126
0.84103649
0.93272531
0.40336518
0.28722652
0.82470542
0.75790984
0.61706330
0.60888357
0.25206996
0.83075264
0.94229319
0.75900805
0.59588819
0.75989438
0.24730227
0.31727288
0.50784432
0.33520602
0.53840044
0.00490041
0.89888226
0.98126988
0.11128910
0.94775014
0.16663944
0.20261517
0.49344025
0.28427198
0.19856335
0.79199574
0.77173324
0.03959985
0.72472105
0.17509842
0.32682636
0.54942647
0.93300826
0.94388967
0.15831004
0.18507822
0.77464231
0.10060323
0.94408627
0.37053050
0.86049761
0.19138855
0.68780337
0.36834193
0.52659457
0.22620382
0.37324235
0.42547682
0.20747369
0.48453145
0.37322697
0.37411313
0.68714662
0.86666722
0.65838511
0.88570998
0.65866296
0.43011836
0.92530982
0.38338401
0.60521678
0.25213619
0.93281048
0.53822504
0.19602585
0.09112052
0.72330326
0.97066816
0.19172374
0.66738953
0.34119866
0.05222136
0.85877808
0.02900203
0.42056329
0.38537264
0.25520585
0.79380564
0.81084947
0.46267954
0.27833709
0.18407643
0.83679267
0.96548371
0.05074365
0.49517778
0.85119369
0.70940661
0.92529614
0.77650351
0.09279061
0.53051291
0.02863970
0.02560109
0.06873795
0.22466555
0.11672160
0.79204121
0.19533371
0.30844535
0.45943074
0.53653237
0.36066670
0.31820882
0.56553440
0.78122999
0.70358146
0.82074025
0.57503563
0.51443093
0.28341979
0.85337272
0.69850736
0.12021246
0.81885643
0.74925101
0.61539024
0.67005011
0.45865762
0.54068637
0.44655362
0.55144823
0.07119928
0.47519332
0.57704932
0.13993723
0.69985887
0.69377092
0.93197844
0.89519258
0.00221627
0.39140918
0.43172494
0.36288298
0.70961800
0.99725934
0.14411297
0.41319945
0.81799959
0.71914860
0.92763038
0.10141938
0.57252132
0.62613774
0.22163184
0.39137774
0.37538876
0.83702208
0.06142786
0.83404637
0.37770845
0.50798148
0.38549461
0.44890773
0.98317479
0.96254393
0.58884497
0.68303366
0.65631485
0.52082341
0.57822623
0.65853112
0.91223259
0.00995118
0.02141410
0.62185058
0.00721052
0.16552707
0.03505004
0.82521011
0.88467567
0.96268042
0.92662950
0.45719699
0.58881816
0.14826133
0.84857473
0.96420692
0.98528341
0.91000259
0.79825329
0.36299186
0.41798406
0.18374790
0.81189959
0.40115885
0.14629182
0.40074456
0.08419251
0.80260667
0.92156797
0.66241875
0.46113780
0.83380056
0.67236992
0.48255189
0.45565114
0.67958044
0.64807896
0.49070118
0.50479056
0.53275463
0.45338160
0.43142005
0.98995161
0.04219976
0.57968139
0.83852634
0.00640668
0.56496480
0.74852893
0.80465997
0.92795666
0.16651299
0.98840787
0.73985625
0.56767184
0.13469970
0.14060081
0.65186435
0.93730637
0.06216878
0.31428310
0.39844417
0.89596934
0.98665302
0.88099606
0.35162049
0.66623347
0.52907502
0.84232167
0.17102403
0.06182964
0.29570327
0.60244408
0.05178125
0.33790303
0.18212547
0.89030760
0.34430972
0.74709027
0.63883652
0.14896969
0.67504692
0.80534951
0.13737756
0.41490318
0.37302135
0.27207726
0.55550399
0.02488570
0.20938363
0.61767277
0.33916880
0.60782780
0.51364212
0.32582183
0.48882386
0.86526260
0.99205529
0.01789888
0.70758427
0.16307932
0.07972852
0.00328754
0.76552340
0.13150978
0.34119057
0.94764887
0.02181737
0.68550029
0.69473914
0.66065389
0.83446998
0.36978606
0.46600340
0.97184754
0.78468924
0.83902475
0.24392480
0.34019322
0.86391046
0.45330843
0.95786600
0.20307926
0.06113623
0.47150811
0.52890109
0.54996009
0.33677071
0.52095638
0.56785897
0.04435498
0.68403570
0.64758749
0.04764252
0.44955910
0.77909726
0.38883309
0.39720797
0.80091464
0.07433338
0.09194711
0.46156853
0.90880335
0.46173317
0.92757193
0.88065089
0.24642241
0.76659668
0.12457569
0.58661563
0.63050714
0.57788413
0.54448163
0.83358640
0.63902036
0.01598974
0.36248749
0.18898045
0.35276045
0.88344388
0.75683941
0.39711543
0.56747958
0.40442690
0.44475796
0.01703868
0.18352417
0.83359105
0.41424665
0.98443880
0.90792442
0.50619376
0.44600733
0.81672778
0.96792693
0.37357926
0.69737867
0.21434933
0.14017595
0.82195437
0.80096496
0.77068309
0.39983849
0.34544659
0.60426949
0.03885885
0.36143633
0.96675699
0.22783930
0.71419678
0.85020086
0.98467871
0.11131221
0.41768044
0.38910561
0.55607017
0.43471912
0.57262978
0.38966122
0.84896577
0.55706859
0.29758564
0.35515953
0.00307592
0.11431342
0.32308646
0.37665518
0.81169209
0.53743580
0.51683112
0.63364646
0.33840076
0.28751421
0.03348495
0.68384735
0.89178371
0.07234380
0.04528368
0.85854069
0.30018310
0.75948046
0.70874156
0.28486181
0.87079268
0.12642200
0.67396743
0.42686285
0.56114112
0.24659721
0.81652406
0.41010689
0.80366579
0.11410970
0.76526643
0.80674171
0.22842312
0.08835289
0.18339689
0.04011522
0.62578869
0.70022801
0.67376168
0.96418945
0.98774222
0.70724663
0.64803681
0.87952593
0.77959043
0.69332049
0.73806662
0.07977353
0.45280095
0.44680818
0.36463534
0.32359363
0.57323018
0.03860276
0.75045647
0.13437129
0.28519997
0.56698053
0.54447819
0.08886576
0.68109024
0.30974461
0.89560747
0.90951336
0.39809751
0.07900436
0.94962858
0.02388620
0.77923237
0.62339026
0.98807565
0.76697460
0.33063688
0.63611246
0.64650053
0.11022731
0.32943295
0.38456715
0.19000084
0.78223390
0.83137533
0.55463618
0.10582752
0.40460551
0.59323895
0.85628399
0.53897680
0.87843892
0.42326453
0.08345499
0.96730468
0.10435477
0.39319960
0.86291216
0.01386813
0.79129711
0.94191652
0.96349671
0.81518331
0.72114889
0.58688696
0.80325896
0.48812348
0.91752385
0.43937142
0.13462401
0.02775116
0.76880436
0.51919116
0.21775200
0.55103826
0.35056649
0.77238819
0.65686578
0.75517200
0.36562713
0.51314977
0.29414880
0.24406605
0.93641430
0.37760379
0.21137073
0.04076906
0.77080339
0.07428288
0.05463719
0.56210050
0.01619940
0.01813390
0.37728380
0.73734829
0.60502086
0.18054276
0.22547177
0.52254471
0.61991417
0.36009578
0.55029587
0.38871853
0.87928695
0.76804787
0.93975679
0.22985344
0.54043606
0.59662257
0.98502544
0.90606319
0.10977234
0.27917423
0.15012924
0.04618663
0.65677802
0.36149997
0.08695569
0.42758141
0.43578285
0.14159288
0.98968191
0.45198225
0.15972678
0.36696571
0.18933054
0.76474764
0.54750847
0.41480231
0.28729234
0.16742264
0.77489809
0.83758821
0.55614118
0.65418504
0.60563608
0.49589797
0.88403848
0.14607214
0.09252053
0.86906392
0.05213533
0.20229287
0.14823815
0.20226457
0.24847950
0.80501617
0.56376453
0.33543519
0.23259758
0.99954738
0.47702807
0.22227948
0.45152963
0.63675485
0.58924519
0.64086017
0.40150248
0.13675366
0.05566248
0.68879483
0.30417630
0.83056058
0.52638304
0.86031747
0.48474562
0.13201912
0.35621544
0.36878410
0.27809127
0.44873597
0.23784801
0.33022660
0.65102884
0.38608616
0.53249117
0.89950834
0.19110233
0.09625570
0.23494353
0.42369991
0.09580308
0.71197160
0.64597939
0.54733272
0.34872645
0.23522458
0.18819289
0.75022893
0.37197823
0.24385537
0.43902376
0.67615453
0.07441595
0.96540680
0.53647200
0.55916156
0.09742592
0.89268744
0.92794566
0.37551719
0.34142341
0.16579367
0.70574378
0.99245225
0.55187983
0.23823495
0.89196059
0.74298216
0.33449065
0.12690412
0.16668207
0.43029373
0.83887572
0.81266145
0.97762645
0.18760216
0.04788603
0.16581933
0.93783110
0.41986426
0.40967470
0.37685485
0.09601879
0.48409065
0.34226165
0.63249079
0.04325221
0.43968757
0.52517823
0.97119787
0.81520475
0.86660164
0.13699154
0.52094854
0.85905389
0.68887137
0.75918349
0.75101447
0.43185353
0.09367413
0.87791859
0.59853560
0.52396787
0.71679431
0.41119705
0.50159431
0.90439647
0.45908308
0.66741365
0.84222757
0.87894735
0.07708835
0.21908242
0.97496614
0.56117900
0.56134407
0.60745693
0.60443121
0.00103164
0.13263516
0.57562908
0.81623639
0.99923680
0.71262062
0.33718493
0.85829069
0.40149199
0.09636842
0.60930516
0.83334553
0.19004255
0.48722375
0.43188112
0.71401042
0.20401806
0.84307817
0.21560473
0.10841453
0.30216126
0.88301838
0.95064210
0.18110860
0.96010673
0.16972452
0.15607474
0.52128573
0.73106859
0.76353167
0.12571694
0.73210023
0.89616684
0.70134603
0.54833662
0.89540364
0.41396665
0.88552155
0.75369432
0.81545864
0.98188997
0.36299948
0.64880417
0.17193253
0.85022323
0.08068529
0.88594295
0.05424129
0.92376347
0.10154768
0.16265581
0.22592472
0.98456606
0.11329791
0.40703333
0.94467280
0.28302242
0.56310807
0.46595853
0.01409101
0.32663974
0.59167547
0.74619124
0.22280658
0.29302150
0.29452786
0.11821021
0.70698815
0.18004942
0.87190453
0.52244679
0.16193939
0.23490402
0.17125096
0.33387192
0.08512725
0.25193626
0.21981486
0.13936853
0.17569972
0.32136255
0.30202434
0.40162445
0.30592861
0.41532225
0.80865777
0.25060141
0.69834468
0.37176584
0.71655994
0.71243569
0.69840558
0.30823541
0.45862693
0.92121216
0.60125691
0.75315479
0.03942237
0.30824506
0.93320420
0.91132690
0.83069185
0.09514359
0.14623092
0.00194281
0.42901551
0.23135817
0.25387907
0.64883037
0.37072670
0.42957879
0.97019292
0.67275104
0.83120324
0.27612153
0.08807329
0.63986101
0.52672294
0.78641797
0.01162685
0.24328287
0.49885366
0.71003243
0.55151828
0.95748059
0.63124459
0.15277519
0.71063538
0.67066696
0.46102025
0.64383958
0.58199386
0.29171210
0.73898317
0.72822478
0.29365491
0.16799868
0.95958295
0.54753398
0.81682906
0.33030964
0.97711277
0.78702198
0.00306068
0.80831600
0.06314351
0.09113398
0.44817701
0.58986644
0.87755195
0.45980386
0.83314932
0.37640560
0.16983629
0.38466760
0.33388619
0.80108087
0.53744279
0.04452157
0.47174783
0.99846304
0.68836115
0.05374169
0.29017513
0.42734432
0.78196647
0.58383004
0.59534300
0.74154942
0.13136402
0.41217206
0.07185906
0.10847679
0.19919404
0.07491974
0.91679279
0.26233755
0.16605372
0.36496980
0.85220399
0.04360566
0.82477366
0.68535331
0.42001127
0.99460994
0.07002091
0.75389746
0.79569082
0.60746370
0.79841903
0.26743865
0.60592673
0.48678018
0.32118034
0.89610187
0.91412450
0.10314681
0.47993191
0.50946750
0.84469623
0.61129593
0.92163956
0.91655529
0.71977272
0.12083360
0.99147503
0.63656551
0.38317115
0.15752875
0.00153531
0.23537514
0.20113441
0.82630897
0.92072845
0.62114568
0.82091891
0.99074936
0.37504314
0.61660973
0.59821305
0.17346217
0.88404838
0.20413979
0.66024234
0.20522872
0.10024165
0.57436684
0.30837553
0.58017356
0.08383434
0.15307175
0.19146949
0.00547391
0.06962704
0.91124221
0.12630751
0.06110207
0.54780772
0.50947866
0.21863082
0.54934303
0.74485380
0.41976523
0.37565199
0.66558226
0.04091090
0.19657090
0.65633161
0.41595404
0.81318063
0.25454467
0.58941621
0.69722900
0.45868445
0.24965855
0.90245772
0.55892611
0.82402539
0.21083324
0.13909967
0.90785974
0.36390500
0.33056916
0.91333364
0.43353204
0.24181137
0.03964115
0.49463411
0.78961909
0.54911982
0.71326493
0.33896212
0.29397362
0.13303016
0.71461410
0.95955588
0.17394106
0.91118500
0.61588749
0.58989510
0.72436563
0.87043216
0.17931131
0.42159463
0.32911661
0.42896986
0.32405235
0.88804272
0.25299525
0.53488560
0.02714239
0.16085498
0.89879059
0.35771155
0.07418863
0.33232263
0.59952292
0.11382978
0.82695674
0.38914201
0.66294960
0.54022167
0.72810412
0.95692322
0.67325183
0.44271823
0.91647910
0.84719289
0.35390323
0.53236659
0.43708799
0.07826886
0.40279875
0.61639930
0.49986350
0.73191536
0.04536916
0.82391585
0.61995808
0.29836441
0.35880144
0.64710046
0.45921939
0.25759204
0.00481201
0.53340802
0.58991467
0.60433493
0.64723781
0.41687141
0.99347694
0.31018741
0.95709309
0.72158106
0.26711063
0.63034492
0.16429929
0.18358973
0.47753780
0.51820252
0.71595632
0.91462580
0.59647138
0.11875507
0.53102510
0.09633488
0.85067043
0.57639426
0.92025073
0.47062851
0.87475867
0.27905217
0.11772897
0.33397806
0.53664421
0.12254098
0.86738608
0.12655887
0.72687591
0.51462389
0.54343029
0.72035285
0.82481130
0.50052337
0.44193391
0.09192192
0.13086829
0.60623320
0.27551165
0.60840609
0.12443573
0.99146797
0.52303189
0.72090711
0.11022304
0.05405699
0.81724199
0.96089347
0.63045124
0.73749272
0.43152198
0.50520991
0.01654489
0.54925095
0.83918797
0.55318909
0.67179194
0.70657406
0.67974797
0.39866785
0.22119795
0.22317826
0.11902070
0.04600924
0.72370163
0.56095461
0.13793116
0.85456992
0.16718782
0.41344281
0.46297601
0.29162354
0.40491079
0.98600790
0.01253065
0.51513383
0.04006489
0.82977264
0.47602730
0.67051613
0.56726536
0.90754928
0.17572604
0.58381025
0.45680023
0.01491402
0.13699935
0.12859216
0.72148807
0.81674731
0.52726001
0.94268602
0.03992557
0.64628071
0.98869526
0.76362720
0.20723532
0.12662642
0.61819712
0.37442314
0.54006924
0.08117313
0.66604668
0.94498002
0.06718103
0.67857733
0.46011385
0.10724592
0.50834997
0.93614115
0.77776205
0.07561534
0.84369042
0.95348810
0.65942559
0.30049065
0.96840211
0.79642493
0.42908282
0.68989019
0.61317225
0.95634283
0.63257620
0.65309782
0.60262354
0.62127146
0.41672501
0.80985886
0.74789788
0.03492213
0.18428199
0.28796712
0.11609526
0.85032867
0.23294714
0.18327629
0.52890600
0.69306098
0.29052221
0.03725597
0.62920213
0.06828427
0.11287131
0.47289255
0.02177236
0.77229690
0.77338320
0.99017448
0.56872183
0.20246602
0.68006466
0.18189408
0.15880884
0.31264086
0.83499190
0.76143238
0.93391232
0.25171691
0.57129124
0.68181020
0.28663904
0.75557323
0.96977732
0.40273431
0.60590190
0.20272446
0.58601060
0.13480790
0.89578544
0.87653281
0.17206387
0.52498757
0.94481708
0.28493518
0.99788012
0.96658945
0.05723208
0.77126332
0.95676392
0.62595391
0.97372934
0.63682858
0.80784800
0.13253818
0.94946945
0.64283989
0.89397056
0.88338177
0.89455681
0.46526180
0.56519197
0.18119585
0.22083503
0.53496929
0.58393016
0.82673693
0.73769375
0.16994076
0.96154483
0.63347919
0.04647357
0.13360870
0.15846676
0.99129065
0.41854388
0.15634688
0.95788010
0.47577596
0.92761020
0.91464402
0.10172988
0.90133954
0.55147260
0.90957787
0.03387773
0.50094205
0.55241777
0.92784829
0.38432382
0.44697457
0.39311009
0.94951579
0.62817042
0.61394512
0.48448509
0.21210058
0.44068205
0.22217884
0.38204134
0.40222688
0.85565803
0.42851491
0.53583558
0.01412479
0.41980556
0.95437947
0.17047167
0.37768566
0.43015543
0.09808187
0.29232968
0.53188531
0.99942142
0.84380228
0.44146318
0.03329915
0.34474433
0.99388095
0.96114744
0.72906815
0.44085552
0.35425753
0.67858394
0.06902595
0.96820266
0.16306903
0.28112653
0.40888471
0.38524786
0.66316786
0.81111159
0.24090589
0.09168277
0.34694718
0.25503068
0.51148834
0.30132664
0.42550235
0.88917400
0.73148207
0.52358423
0.18150368
0.26336738
0.52300565
0.02530596
0.70483056
0.55630479
0.37005029
0.69871151
0.51745223
0.09911843
0.13956703
0.87170977
0.77770237
0.20859298
0.83991242
0.94077140
0.48971950
0.24879714
0.32601926
0.15288737
0.05990873
0.56692516
0.24457014
0.40685591
0.82195584
0.75605848
0.70818255
0.24745820
0.64523248
0.43966462
0.77104243
0.82673615
0.70303200
0.29404807
0.85204211
0.40786256
0.85035287
0.22209240
0.10657407
0.36780510
0.32121083
0.24614110
0.23951486
0.09891321
0.45473407
0.07942729
0.03968461
0.94445358
0.32822442
0.36570387
0.09734094
0.38813315
0.93262903
0.34191108
0.79498906
0.75458487
0.09796956
0.50317161
0.00204307
0.74320204
0.94283623
0.77308549
0.56993819
0.64586823
0.06713357
0.42198030
0.05373079
0.91748643
0.64407270
0.16030486
0.28529153
0.96528353
0.40644595
0.52480640
0.06419674
0.86118003
0.60423368
0.10388135
0.80563360
0.93245811
0.46958522
0.90297454
0.32059126
0.40221425
0.24488563
0.11558032
0.15679913
0.34285519
0.61875193
0.15884220
0.08605722
0.56158816
0.93192769
0.65599541
0.20745639
0.99906126
0.07797571
0.26118718
0.91654769
0.72204840
0.42149204
0.20183922
0.68733193
0.82793799
0.72664562
0.75152867
0.68911802
0.33087930
0.85541002
0.49475162
0.26333740
0.32499524
0.39772616
0.58392866
0.72720950
0.64261178
0.69950898
0.88400862
0.98546697
0.31826091
0.04285082
0.07152419
0.87984907
0.97477851
0.72751960
0.08730546
0.97383977
0.80549531
0.34849264
0.89038746
0.52754371
0.76998467
0.09222668
0.21487565
0.59792266
0.81887230
0.96640432
0.28704068
0.14975160
0.82181434
0.78179229
0.41308900
0.14680958
0.17951845
0.99701766
0.87401908
0.82213024
0.69652664
0.75802770
0.80759721
0.01478755
0.80087852
0.87912140
0.89463662
0.77565703
0.60664100
0.98194208
0.74949680
0.41213631
0.33043471
0.63988426
0.93968002
0.10041938
0.73211094
0.15455566
0.69834205
0.55098324
0.12095998
0.98538272
0.70073483
0.94277432
0.76717502
0.11382383
0.08958390
0.94669347
0.11084150
0.96360298
0.76882371
0.80736814
0.72163068
0.57642091
0.82215569
0.52250920
0.45554231
0.71679230
0.29816623
0.06218331
0.69873438
0.04766303
0.47431961
0.02916909
0.68754730
0.41399963
0.12958847
0.41965824
0.56855529
0.82793052
0.97064148
0.68951527
0.81331325
0.67137631
0.63228960
0.58048826
0.78520014
0.72187350
0.52718173
0.89604164
0.68547648
0.29600544
0.70340978
0.40710716
0.87242635
0.52556546
0.92961636
0.32796866
0.24235776
0.22778259
0.39015197
0.94109214
0.27544562
0.86447158
0.97026123
0.96299292
0.27847121
0.09984971
0.38265116
0.84702650
0.92778023
0.35329263
0.53654178
0.74109347
0.02466894
0.16883137
0.32158174
0.80986908
0.89070487
0.84876347
0.70591072
0.57618135
0.14476891
0.40932050
0.98328851
0.01719526
0.93488596
0.91290486
0.34516392
0.17724372
0.14068745
0.73531589
0.11833586
0.41613307
0.59978747
0.08859709
0.37912599
0.87825869
0.18844680
0.76177715
0.72528519
0.11622703
0.11506978
0.26182696
0.85732050
0.13973872
0.43065834
0.17890224
0.94960780
0.32136321
0.02766571
0.65551853
0.89754456
0.17243462
0.06483902
0.88083306
0.18962988
0.99972498
0.79373793
0.53479380
0.17696870
0.93442538
0.27010970
0.29530457
0.35055845
0.86989717
0.38390166
0.72968444
0.74815586
0.57234846
0.49146159
0.47344104
0.68857548
0.60653137
0.73526801
0.54589598
0.74627009
0.16592635
0.72479822
0.69587789
0.48728955
0.75246392
0.35139642
0.38483411
0.92489854
0.41623544
0.26566717
0.11452842
0.41596042
0.05940510
0.64932222
0.59292913
0.99383048
0.91943192
0.88823370
0.34438893
0.78932909
0.27213536
0.07407337
0.53748495
0.84448382
0.56553496
0.01092599
0.53305930
0.17206633
0.74619400
0.07895528
0.91833642
0.91212034
0.80375350
0.61421430
0.39940990
0.55621742
0.96561072
0.78424401
0.48111596
0.38184616
0.04991118
0.59564438
0.79780658
0.10931628
0.24496661
0.39073571
0.10314675
0.16439853
0.27896941
0.44753568
0.95372762
0.55110476
0.52160905
0.49121257
0.39558858
0.08714401
0.50213856
0.92864788
0.25921034
0.24833256
0.00760316
0.17754675
0.16045290
0.81135666
0.79176106
0.55986280
0.36757408
0.75737178
0.34410680
0.84869004
0.13921794
0.39401798
0.44433443
0.93702452
0.50333426
0.68930104
0.32776023
0.60648101
0.85369957
0.60672964
0.05401669
0.80742719
0.15783441
0.57562574
0.29863975
0.55342298
0.66276975
0.80077831
0.48207086
0.92198009
0.04911087
0.48967402
0.09952684
0.20956377
0.30103068
0.89128790
0.76942657
0.66860476
0.64865967
0.11353337
0.51729480
0.78787761
0.50755135
0.96162923
0.72490213
0.01088561
0.65093027
0.05266237
0.61736663
0.50462984
0.65939201
0.67138332
0.31205702
0.81722641
0.24700906
0.61069678
0.37064940
0.90977881
0.41147509
0.85272026
0.83175890
0.46058596
0.34239428
0.93128574
0.67014973
0.64342496
0.82257364
0.43957629
0.31202971
0.47123331
0.55310966
0.82932452
0.25911092
0.06066101
0.79095375
0.98401306
0.07154663
0.44188402
0.03667543
0.68891326
0.94651386
0.69606744
0.36029658
0.25857088
0.51329385
0.60730564
0.86926766
0.88394325
0.51708445
0.28074275
0.73666351
0.34884335
0.74132871
0.07905779
0.28012909
0.41147843
0.72248275
0.10270272
0.85105472
0.03451246
0.57393604
0.40416439
0.86383698
0.83304696
0.46482540
0.65479072
0.81706002
0.53637203
0.09667474
0.85373545
0.22528528
0.04318860
0.54980289
0.58558186
0.30175948
0.06309674
0.19288750
0.17102713
0.94703999
0.70997194
0.45176988
0.68370350
0.05881529
0.19309858
0.76276129
0.33894438
0.60457702
0.48524403
0.44164711
0.45563174
0.51975649
0.01558314
0.85979613
0.38359347
0.84863010
0.32462153
0.03838420
0.66569012
0.86099356
0.13505894
0.51942557
0.08627884
0.17824754
0.06922846
0.67186070
0.48000701
0.13232519
0.86474820
0.65103415
0.07936518
0.57472014
0.10280403
0.76306868
0.63353543
0.29590261
0.52582997
0.97247981
0.90047963
0.01107400
0.41412692
0.35611137
0.53083050
0.42971006
0.21590750
0.91442397
0.27834017
0.54052902
0.95280816
0.94403029
0.40152258
0.08786710
0.46345586
0.48780142
0.26611464
0.53268432
0.15966212
0.74612165
0.66500951
0.02441032
0.39715580
0.74437470
0.59913046
0.49995982
0.50744338
0.23266590
0.79586243
0.03327335
0.20514571
0.69634206
0.04434735
0.61927263
0.05245343
0.57517785
0.04898269
0.26836093
0.48960182
0.32732286
0.80888995
0.44240998
0.27135315
0.21041253
0.53027708
0.73480901
0.69821395
0.79639172
0.26749333
0.85787608
0.54251338
0.93250284
0.88228640
0.93966917
0.67687754
0.48141686
0.43962900
0.18432092
0.71408275
0.23549143
0.21759427
0.91922846
0.93183349
0.26194162
0.53850109
0.98428692
0.83711947
0.58748378
0.25264785
0.32672129
0.91480664
0.06153780
0.76913127
0.18615979
0.27195033
0.29940835
0.92096879
0.97016428
0.09580008
0.18846212
0.82804036
0.63831345
0.12096496
0.71032675
0.57798263
0.79784250
0.19174361
0.01761163
0.98216342
0.90582636
0.25310306
0.19975769
0.82505482
0.18493655
0.46169930
0.36355591
0.16922347
0.29881877
0.95103969
0.42187132
0.62554006
0.86584633
0.48340911
0.39467133
