17281
0.70313436
0.16488733
0.20364208
0.03819524
0.75811102
0.37515493
0.70267577
0.00696732
0.96050645
0.95956623
0.42198648
0.98264331
0.72620656
0.50944977
0.29253910
0.92391367
0.43242054
0.17576534
0.58429708
0.36823254
0.83056423
0.29015515
0.38195819
0.32654941
0.93796098
0.56991287
0.84524700
0.73753690
0.21702936
0.09261827
0.81260831
0.92016371
0.25750560
0.01625038
0.95835895
0.01561662
0.39140531
0.66103472
0.02258394
0.35191176
0.62060094
0.44457041
0.33455507
0.34680750
0.95402019
0.62709417
0.27072117
0.38644073
0.80285951
0.85501826
0.75467327
0.63342374
0.14517340
0.13663146
0.95997316
0.08313439
0.70654433
0.80522016
0.82067129
0.92357369
0.89783843
0.63327960
0.84373740
0.15534403
0.64952998
0.80209635
0.17096065
0.04093529
0.46313107
0.19354458
0.39284705
0.08373201
0.63811500
0.72740212
0.43053951
0.59213518
0.35449629
0.70126069
0.97857591
0.15735581
0.55627894
0.73324919
0.79077955
0.70145235
0.86988065
0.75075271
0.78458674
0.57642498
0.55597286
0.60525803
0.49999867
0.45381130
0.23853762
0.34373607
0.60915533
0.88806760
0.14583242
0.78011597
0.92900289
0.60896349
0.97366056
0.32184994
0.69269551
0.61177555
0.04925206
0.12323502
0.20391073
0.40374835
0.82449571
0.18248665
0.56110416
0.38077465
0.91573583
0.35188371
0.08222700
0.78561648
0.10263642
0.86681374
0.36204146
0.65860928
0.47207176
0.86204013
0.11242057
0.71060939
0.20577619
0.72157590
0.59867699
0.35160861
0.50169187
0.52767987
0.96057211
0.47535243
0.84952981
0.65326761
0.08712799
0.89878187
0.77650263
0.29103872
0.30253022
0.60099834
0.47352537
0.86363438
0.98177299
0.38926120
0.21551809
0.06399999
0.17487767
0.31815451
0.93081373
0.53691913
0.97676379
0.40288549
0.39895926
0.08918436
0.11349488
0.60473545
0.81076026
0.71217186
0.95634406
0.31245214
0.23985174
0.91691617
0.78780457
0.08938155
0.57018378
0.87493256
0.98816342
0.34668641
0.16597128
0.29069364
0.94768475
0.63949664
0.15432803
0.92945774
0.02875784
0.36984612
0.99345773
0.20363551
0.68800062
0.92427146
0.74055464
0.66476441
0.32715695
0.13951389
0.75394877
0.44065182
0.74424934
0.56470903
0.15282368
0.70059341
0.87716117
0.39267542
0.61750958
0.66496574
0.48205697
0.18769336
0.53989829
0.47022039
0.53437977
0.70586957
0.76091403
0.48206452
0.34536621
0.91524206
0.41152226
0.37412405
0.28508817
0.40497999
0.57775955
0.97308879
0.32925145
0.31831419
0.63785320
0.65640840
0.45782808
0.39180197
0.09706022
0.20207743
0.95651100
0.24988390
0.90267083
0.83367217
0.64255932
0.52018041
0.49863791
0.12461629
0.70787377
0.03853620
0.59483668
0.24225354
0.74440577
0.35575071
0.72431806
0.08977198
0.27099277
0.13584032
0.46389603
0.55608094
0.54082031
0.04165558
0.52916973
0.87007176
0.35996977
0.16702294
0.52648016
0.81779786
0.55882491
0.62354038
0.01987528
0.51533591
0.87342428
0.92254612
0.34900809
0.51598361
0.44272652
0.84764600
0.64059990
0.15060029
0.88618220
0.23543658
0.39285383
0.63058798
0.59118729
0.11717188
0.72035996
0.86218005
0.25301220
0.18425599
0.41826099
0.79383252
0.22591157
0.94743073
0.66390428
0.58588135
0.11445367
0.19038444
0.40367921
0.67327858
0.81392482
0.42355449
0.18861449
0.68734910
0.34610061
0.53762258
0.20333270
0.78882713
0.38526858
0.84393260
0.93942742
0.27145078
0.07936917
0.33228125
0.90203876
0.67055646
0.44945313
0.62239872
0.53273652
0.70246534
0.80665471
0.95099751
0.49629785
0.03256628
0.89842824
0.16020213
0.61844763
0.01288190
0.35058657
0.02212683
0.68616048
0.16451138
0.44568132
0.87477497
0.85186048
0.79178193
0.41239755
0.05519319
0.58060906
0.79766613
0.89912579
0.52003648
0.06911691
0.97849496
0.85231773
0.97115567
0.64905142
0.30177086
0.59355439
0.18178794
0.00423619
0.40020910
0.13278545
0.50053405
0.43277538
0.03121369
0.66073618
0.05122301
0.04409559
0.01132274
0.07334984
0.73025607
0.17583413
0.51903117
0.60503105
0.02769461
0.31081310
0.01742860
0.08288780
0.89142216
0.81509473
0.98201358
0.41145864
0.88421164
0.96050854
0.26377637
0.85536731
0.60955996
0.56554722
0.44892170
0.79134790
0.56978342
0.84913080
0.92413335
0.07031746
0.28190618
0.95534704
0.73105364
0.33312918
0.99944263
0.74237638
0.40647903
0.72969870
0.91821051
0.92551020
0.33472975
0.94590512
0.23632329
0.35215834
0.02879292
0.12774545
0.16725307
0.01080650
0.53920409
0.05146471
0.97131504
0.80298046
0.90683203
0.58087501
0.36852768
0.35575373
0.37222291
0.93831110
0.20488452
0.29635626
0.00862856
0.48679070
0.25170329
0.73968220
0.81991988
0.25114592
0.48205858
0.22639891
0.98084462
0.40026910
0.15190911
0.31557436
0.34617422
0.38823240
0.66773271
0.37496714
0.51597785
0.83498578
0.38577364
0.05518194
0.88645050
0.35708868
0.85816239
0.79328252
0.93796369
0.22669007
0.14903625
0.31018659
0.16500117
0.35392077
0.60654285
0.17362973
0.84071147
0.85824614
0.91331194
0.66063136
0.10939206
0.39537052
0.88703027
0.09023668
0.79563962
0.03893937
0.40581104
0.14181383
0.42717177
0.07354375
0.51678097
0.94314962
0.90852954
0.90255461
0.99833156
0.79498004
0.25964329
0.85649395
0.58826256
0.19760697
0.08318403
0.73729881
0.50779357
0.24818520
0.09121958
0.11433642
0.42181493
0.93193105
0.97258256
0.33512687
0.59256241
0.08197462
0.73049739
0.47959267
0.17221130
0.52613700
0.51853204
0.57802235
0.66795084
0.94570382
0.65156610
0.18473181
0.88885343
0.56009564
0.08728642
0.88718499
0.35507567
0.34692970
0.74367894
0.94333823
0.54453668
0.82686297
0.68063704
0.05233025
0.07504817
0.77185662
0.16666667
0.49686310
0.70378767
0.13924923
0.83198997
0.29635008
0.22122385
0.56248736
0.77594275
0.39343516
0.08862436
0.29447480
0.97145750
0.75657520
0.24017861
0.62302360
0.94130700
0.12903205
0.18311924
0.02859342
0.01621704
0.53819492
0.37552313
0.75989598
0.48153315
0.92005980
0.58675895
0.16217019
0.97239005
0.66180712
0.93402681
0.13905672
0.15867021
0.63781448
0.27830595
0.99066018
0.93416456
0.49952980
0.55314754
0.71010731
0.89296496
0.64177190
0.00458211
0.86442246
0.39834709
0.24476072
0.48744606
0.33965410
0.37379276
0.67056530
0.36824752
0.39000980
0.20876022
0.74377064
0.14990578
0.69029337
0.66383045
0.73666473
0.85246355
0.63622050
0.39847184
0.78649036
0.77527722
0.55714205
0.42430484
0.05358317
0.54780224
0.35846939
0.55311297
0.10094977
0.06857670
0.44607793
0.74272167
0.07315881
0.31050039
0.14106876
0.31791953
0.79794645
0.48072286
0.69171229
0.46851175
0.84897038
0.08172209
0.67727197
0.59274102
0.23162787
0.36756534
0.25657147
0.96829259
0.22002889
0.89279197
0.36676443
0.00651925
0.66806919
0.92390649
0.43082408
0.72165236
0.47170872
0.78929348
0.27476533
0.57265850
0.85787018
0.72084326
0.31538017
0.93102899
0.03134365
0.45644893
0.24894852
0.82929010
0.93717179
0.94066081
0.29780185
0.78614217
0.02238290
0.97507382
0.37888319
0.25401076
0.34263916
0.63545466
0.22230335
0.56266805
0.52824663
0.58906779
0.56918729
0.19631582
0.51297427
0.00001138
0.91796818
0.98468300
0.78930486
0.19273351
0.55734149
0.64717504
0.91357677
0.87272166
0.57820403
0.94492042
0.32917058
0.82715255
0.77421052
0.26634237
0.76781336
0.07201237
0.05248454
0.79019626
0.04708619
0.43136772
0.04420702
0.38972535
0.06682238
0.26651038
0.95239340
0.59506900
0.85557816
0.52158069
0.79138482
0.36855244
0.52159207
0.70935300
0.35323543
0.31089693
0.90208650
0.91057692
0.95807197
0.81566327
0.78329858
0.53627600
0.76058369
0.11246916
0.36342855
0.53479421
0.37881153
0.13124191
0.60680657
0.43129607
0.92143817
0.65389276
0.86266380
0.96564519
0.04361811
0.92948617
0.23215557
0.99601151
0.52455518
0.08773373
0.51759219
0.31594000
0.45628617
0.03918426
0.02529299
0.80952160
0.35008119
0.92737950
0.72009852
0.30815316
0.74304277
0.50339710
0.84442916
0.50362646
0.61586626
0.20785771
0.03842067
0.99467780
0.33909963
0.64522725
0.42597387
0.26053780
0.29912001
0.28863767
0.22618299
0.34273812
0.21812384
0.45833856
0.33874962
0.74267902
0.54607230
0.85634182
0.05861902
0.00235846
0.89552608
0.08391201
0.81188007
0.24560727
0.01129151
0.53197859
0.55376043
0.75433429
0.03537569
0.39818959
0.25796075
0.65124195
0.60604730
0.29638142
0.64591975
0.94514693
0.94160867
0.07189362
0.20568473
0.24072868
0.36053129
0.43186772
0.58346679
0.57865513
0.89020628
0.92221642
0.32133415
0.43627858
0.77855824
0.37995317
0.43863704
0.67408432
0.46386518
0.25051711
0.91969159
0.47515669
0.78249570
0.47345202
0.22949098
0.81787138
0.87164161
0.48745173
0.46911334
0.47768891
0.78383315
0.11503309
0.42283584
0.72544182
0.18692671
0.62852056
0.96617050
0.54745800
0.06038828
0.54963729
0.12611313
0.95059456
0.47185371
0.44744728
0.38687314
0.25041195
0.82740044
0.82551018
0.92449626
0.29126562
0.07602729
0.84418786
0.76642232
0.85852299
0.31763987
0.99591330
0.67639437
0.18928148
0.48336503
0.14550770
0.66697039
0.26719818
0.26054079
0.08980623
0.99264000
0.44746750
0.71832679
0.95881050
0.99492551
0.77871507
0.50844779
0.12103863
0.72930964
0.98030150
0.56848591
0.11618278
0.23071344
0.39588636
0.94169296
0.15520971
0.68715198
0.01772025
0.99939756
0.45357430
0.87624323
0.31703744
0.44948760
0.55263760
0.50631892
0.93285262
0.69814531
0.17328931
0.20005080
0.95868610
0.26309554
0.19269081
0.40615361
0.98142233
0.15150130
0.40107911
0.76013740
0.65994909
0.52211775
0.48944704
0.64025059
0.09060366
0.60562981
0.87096403
0.48649002
0.54732277
0.02617374
0.17364200
0.56504302
0.02557130
0.62721630
0.44128626
0.34260874
0.07670389
0.99392386
0.84892766
0.00955652
0.69206917
0.02221697
0.20960732
0.65075527
0.28531251
0.40229813
0.05690887
0.26673485
0.55379943
0.45798799
0.02687225
0.21374853
0.98010573
0.51631929
0.85399912
0.07070939
0.12194910
0.72496315
0.55719941
0.66927188
0.75113689
0.73084140
0.23431490
0.77670819
0.35805770
0.67560116
0.11931693
0.43476160
0.66952502
0.96824459
0.44431812
0.36159418
0.99046157
0.65392544
0.01234945
0.27577408
0.05622357
0.06925833
0.54250893
0.61002301
0.52724631
0.56938118
0.82377153
0.50735205
0.08570047
0.67777065
0.57806144
0.20764957
0.40273380
0.13526084
0.87692145
0.15387069
0.86610225
0.11123635
0.93057888
0.22415995
0.78683751
0.04989581
0.65892154
0.45636253
0.01814041
0.10323966
0.81795671
0.00860197
0.75716510
0.83030616
0.28437606
0.81338867
0.89956449
0.82688499
0.42341168
0.42681081
0.39626617
0.24718321
0.93416285
0.48196664
0.92495386
0.51222429
0.68961621
0.32768766
0.64748513
0.56653766
0.48155834
0.51358738
0.67777401
0.41213722
0.73774732
0.46461152
0.46203303
0.39666887
0.92097405
0.48017344
0.49990853
0.73893076
0.48877541
0.25707363
0.56923692
0.77315147
0.07046230
0.46880142
0.60003645
0.49387398
0.89561223
0.99630262
0.74105719
0.82977508
0.47826925
0.66601104
0.34199937
0.16788546
0.99369870
0.98948450
0.73442313
0.47525704
0.50307188
0.41219714
0.88739426
0.24081920
0.87680866
0.34942729
0.63748807
0.79778271
0.82960073
0.13739660
0.53671347
0.31837614
0.39447022
0.10595040
0.09152760
0.46493252
0.57475181
0.69156405
0.95880650
0.47036404
0.68786667
0.69986368
0.30013912
0.16613593
0.36587473
0.64213849
0.33402139
0.35957343
0.63162299
0.06844452
0.83483047
0.13469487
0.48064166
0.72222473
0.37551408
0.35745032
0.07165202
0.01300215
0.15523303
0.90125274
0.15039875
0.69194651
0.21962888
0.54486897
0.79789690
0.31115648
0.00980149
0.37264872
0.00272053
0.96860799
0.84301276
0.69058721
0.66847167
0.14315187
0.85672313
0.03434640
0.78529036
0.19074452
0.39391982
0.41691335
0.25918904
0.22875029
0.55160822
0.73983070
0.95097501
0.92712230
0.09728102
0.02262703
0.94012445
0.25251406
0.92387977
0.09052320
0.94446056
0.14350865
0.63539217
0.74235747
0.45466513
0.64519366
0.11500618
0.45738567
0.61380165
0.95801894
0.14797287
0.28227332
0.10117081
0.00469601
0.31661971
0.88646117
0.19544053
0.71053954
0.30337452
0.45462957
0.93928983
0.85498275
0.19446027
0.89026484
0.78210505
0.29174129
0.91289187
0.72222950
0.54425535
0.83677165
0.81275270
0.48871591
0.98028030
0.44814486
0.23107338
0.43494543
0.09333852
0.34607956
0.89233110
0.70714017
0.30409850
0.04030397
0.98941348
0.40526931
0.04499998
0.30603320
0.29173048
0.24044051
0.01657273
0.59510500
0.69507008
0.95586256
0.45008775
0.88953035
0.84612740
0.23219280
0.18127163
0.75901927
0.95442230
0.72552698
0.59579091
0.76717500
0.21424289
0.57607121
0.21531986
0.44531626
0.01101664
0.30865838
0.79139582
0.90334774
0.01579855
0.09549432
0.94365172
0.00521203
0.50076363
0.98865170
0.31124523
0.79249411
0.22909220
0.32781796
0.38759911
0.92416228
0.28368052
0.83768687
0.81369263
0.12980791
0.06987967
0.99496426
0.88882719
0.02430197
0.72049124
0.48461810
0.79147697
0.93473413
0.06068931
0.00679683
0.38005039
0.07170595
0.31545521
0.17144622
0.97505370
0.33125376
0.26694054
0.91870541
0.33646579
0.76770417
0.90735711
0.64771102
0.56019827
0.13644931
0.97552897
0.94779739
0.06061159
0.25920949
0.78548425
0.87430422
0.38901740
0.85536392
0.86926848
0.27784459
0.87966590
0.58975972
0.76246269
0.67114287
0.52449385
0.82315200
0.67793970
0.90454425
0.89485795
0.99339492
0.07599046
0.86991165
0.32464868
0.34293100
0.78861706
0.66111447
0.11063516
0.69597417
0.30882548
0.67083344
0.83242348
0.28435446
0.61863082
0.89303508
0.54356395
0.40411508
0.76733930
0.93258135
0.25947900
0.63660778
0.21042594
0.13914489
0.22636750
0.97288863
0.81028776
0.75086136
0.79604063
0.48822746
0.65540560
0.69089858
0.48162238
0.73139606
0.56081023
0.80627106
0.07432706
0.34942729
0.46738552
0.18496222
0.04540146
0.77621101
0.85579566
0.87782494
0.06056546
0.47442648
0.77086002
0.60412941
0.87854156
0.53819931
0.53671076
0.13802056
0.17480709
0.74713670
0.27716545
0.40117460
0.72002533
0.08745321
0.15203595
0.51606595
0.57568067
0.80744155
0.20696453
0.05730305
0.53883762
0.76777476
0.86357411
0.61316467
0.11720205
0.33095963
0.79812690
0.16260351
0.10717064
0.65392256
0.04042845
0.16773610
0.12834904
0.81128846
0.77186551
0.00689060
0.34948778
0.30857627
0.14491115
0.52429487
0.05571297
0.42207660
0.92546947
0.77573830
0.50952981
0.07750542
0.29180425
0.08521048
0.88494698
0.49876879
0.14251354
0.42378459
0.26654354
0.00608764
0.03694927
0.38374559
0.33704727
0.83507616
0.54634910
0.44421791
0.48899872
0.58677754
0.61195401
0.61734776
0.39806601
0.38381953
0.62423835
0.74755378
0.69239580
0.76914951
0.27184865
0.74810878
0.19122611
0.19731812
0.52384708
0.70075592
0.27482354
0.81565133
0.78596641
0.15977052
0.31442012
0.92847994
0.58355511
0.58096366
0.93456758
0.62050438
0.96470925
0.27161486
0.45558054
0.51105835
0.71583277
0.94457926
0.09783589
0.32778678
0.56192702
0.49590190
0.71160631
0.18616537
0.24345568
0.40400211
0.95531488
0.51530434
0.15211089
0.14654098
0.71262246
0.67595796
0.84729691
0.98744600
0.49160930
0.63326331
0.14721652
0.80602941
0.56174325
0.73077163
0.38699307
0.49631084
0.35127601
0.35170233
0.76792569
0.80685655
0.86276068
0.48375846
0.75143581
0.96059657
0.81154524
0.31336282
0.45649847
0.52315155
0.49952819
0.69995416
0.92715365
0.45484307
0.21525849
0.07926454
0.60138405
0.92788095
0.75522250
0.44868096
0.91532695
0.24683180
0.08194427
0.06254348
0.05286121
0.64368752
0.79331511
0.43985429
0.13999836
0.14459112
0.79155662
0.90792405
0.95144766
0.65431729
0.39168250
0.70288347
0.61491387
0.20322774
0.01624629
0.07141234
0.72637929
0.51577448
0.77136650
0.65353294
0.97061755
0.98662499
0.73279748
0.57200160
0.91450594
0.48801998
0.02068256
0.82983290
0.73485178
0.10262683
0.89237637
0.78771300
0.74631435
0.68569148
0.22756729
0.88631270
0.83028260
0.01912390
0.79423675
0.78173026
0.67344120
0.18591925
0.48461373
0.28835506
0.38914699
0.50086002
0.35976740
0.11552628
0.01663450
0.13113390
0.76905922
0.98725205
0.11775890
0.50185670
0.55925365
0.03226484
0.98987669
0.57993621
0.86209774
0.72472847
0.68256304
0.75447411
0.51244147
0.42887738
0.44016559
0.74000875
0.31519009
0.27044818
0.75913266
0.10942684
0.05217844
0.43257385
0.29534609
0.53679217
0.72092891
0.68449308
0.03765219
0.08069632
0.80001936
0.05428669
0.21183022
0.56907858
0.04153873
0.32958912
0.07093529
0.60079238
0.36185396
0.06081197
0.18072859
0.22395169
0.78554044
0.86329163
0.97842580
0.29798191
0.29216901
0.41859138
0.03799067
0.60735910
0.68903957
0.79712332
0.71678594
0.74121801
0.22969717
0.01213203
0.27801018
0.95062609
0.69662511
0.31566236
0.03132240
0.49664448
0.36994905
0.24315262
0.06572306
0.41148778
0.57274174
0.13665835
0.01228017
0.93459570
0.19747032
0.19300876
0.15854739
0.98301076
0.05630039
0.13697318
0.28099268
0.34846940
0.55556457
0.31898334
0.95582851
0.24460413
0.11610667
0.67261444
0.98582214
0.34580384
0.68474647
0.26383232
0.29642992
0.38137158
0.57949469
0.32775233
0.87801606
0.94944374
0.57090495
0.94373912
0.36093152
0.14364669
0.08039746
0.37321169
0.07824239
0.27786778
0.56622045
0.23678977
0.26087855
0.62252084
0.37376296
0.54187122
0.97099024
0.92932752
0.86085456
0.92681875
0.17393166
0.97696123
0.59943319
0.15975380
0.32276507
0.28417966
0.42358612
0.61919499
0.66555125
0.00308080
0.94694732
0.54356731
0.95252454
0.51785227
0.48730642
0.31345606
0.66149896
0.56770389
0.68666775
0.73974135
0.84557167
0.25288820
0.97653112
0.10645022
0.87540904
0.35029408
0.64832144
0.84639928
0.27962160
0.50917600
0.77321803
0.45355326
0.48613723
0.37265122
0.61330706
0.80890230
0.65683088
0.03689318
0.42809729
0.32238213
0.03997398
0.37504462
0.86594943
0.99249852
0.89289689
0.35325586
0.30595458
0.55439585
0.92095974
0.99262233
0.29413720
0.76653141
0.24551053
0.27066832
0.87298163
0.12091957
0.62096240
0.52130307
0.96731885
0.90058400
0.03047907
0.74053687
0.35413726
0.51661630
0.11318809
0.96744432
0.32551860
0.77001898
0.00433749
0.75361589
0.09240111
0.04431147
0.12866051
0.95835054
0.03680999
0.02155740
0.31160640
0.34276457
0.57595325
0.23256614
0.33538690
0.87009045
0.99909756
0.58089743
0.14075878
0.87207918
0.70181700
0.76172118
0.39338225
0.66913585
0.66230518
0.42386132
0.40967272
0.01644244
0.94047762
0.52286082
0.98388675
0.26599621
0.29287979
0.98822424
0.01961211
0.38528090
0.03253571
0.14827262
0.34363144
0.06934571
0.16983002
0.65523783
0.41211028
0.74578327
0.88780397
0.74749718
0.61587372
0.88690153
0.32839462
0.75663250
0.75898071
0.03021162
0.51835367
0.15236296
0.69934746
0.18065885
0.57622428
0.10902018
0.19710129
0.51670190
0.63188100
0.18098805
0.78269811
0.92476079
0.16921229
0.80231022
0.31004169
0.20174800
0.95058283
0.65367312
0.27109371
0.12041285
0.30891096
0.68320399
0.86619611
0.19671493
0.43070117
0.48206983
0.08361646
0.75909579
0.23870233
0.84259717
0.78930741
0.75705600
0.99496013
0.48865487
0.93771486
0.57118441
0.59767505
0.13481615
0.08788631
0.22955605
0.31580420
0.87058442
0.15431684
0.48501649
0.67289463
0.46435853
0.68676449
0.62347747
0.11803165
0.95785820
0.74389031
0.42694261
0.64106219
0.61008643
0.62365754
0.07176337
0.09215626
0.70727400
0.83085916
0.33085859
0.54987117
0.62016657
0.08791459
0.54483130
0.10882143
0.02562945
0.11601572
0.70649649
0.16044560
0.20390203
0.93605254
0.47624979
0.07448644
0.09036938
0.96126628
0.74738108
0.55472790
0.64803077
0.37085854
0.67275955
0.60588898
0.11474886
0.09970216
0.24695117
0.72483529
0.72335970
0.31871454
0.81699155
0.43063370
0.14957370
0.14785013
0.98050486
0.76974027
0.23576473
0.52533617
0.87856170
0.26139417
0.64135188
0.58505819
0.42183977
0.84525391
0.52111072
0.89808957
0.91974036
0.61148010
0.85935585
0.66712143
0.16620800
0.50738662
0.03797998
0.83896755
0.11327560
0.15272884
0.93866972
0.36022677
0.87756412
0.66202942
0.67894131
0.69455567
0.09266311
0.82851500
0.84240580
0.07316798
0.59825527
0.07817053
0.59850414
0.47681697
0.33956470
0.23985603
0.06187516
0.76140447
0.08510994
0.58298588
0.65949404
0.00485029
0.19446598
0.51884989
0.67197173
0.36067398
0.02623651
0.70995171
0.19964154
0.13951210
0.86268054
0.13831125
0.49973887
0.74024466
0.80034067
0.17868017
0.43480033
0.89300378
0.00719518
0.27720613
0.96617175
0.60545045
0.35537666
0.56467590
0.08226742
0.69494136
0.80453192
0.14414258
0.45634583
0.88964186
0.72712846
0.11583987
0.89449215
0.92159444
0.63468976
0.56646388
0.28226842
0.66092626
0.27641558
0.48190996
0.80043837
0.13909613
0.62022121
0.30017723
0.87934079
0.42056188
0.47885741
0.31414112
0.31356565
0.48605259
0.59134725
0.27973741
0.09150303
0.94672391
0.84441330
0.17377045
0.64166527
0.64894523
0.31791303
0.09801110
0.53858708
0.04504149
0.21385097
0.43307924
0.96663593
0.84854073
0.99954312
0.24890435
0.50946699
0.27595870
0.73081431
0.30990535
0.41505483
0.35103552
0.61008259
0.29439562
0.77159740
0.08894000
0.60853673
0.08516305
0.57499258
0.19988398
0.36490046
0.66649562
0.14660789
0.20931376
0.84026607
0.78827316
0.85825899
0.15817911
0.88628426
0.39684607
0.20322060
0.10013523
0.82992531
0.16985653
0.94867596
0.82946843
0.41876089
0.45814295
0.10542713
0.14957520
0.76804830
0.52048196
0.50061072
0.37813089
0.81487757
0.27220812
0.46707088
0.42341431
0.35737117
0.04206347
0.62329829
0.72227163
0.70855908
0.76990618
0.93158540
0.54882516
0.55817934
0.78984438
0.70700426
0.44446360
0.18669046
0.91022486
0.54459883
0.01661577
0.08008139
0.49327479
0.84608420
0.49884228
0.95141773
0.95151132
0.64841747
0.71946603
0.47199328
0.14902819
0.09759692
0.28687085
0.42123631
0.56466781
0.71028516
0.77860748
0.60673127
0.33358345
0.50087911
0.31529036
0.10348963
0.43246451
0.86411551
0.66166897
0.22230889
0.57111978
0.10613257
0.40899935
0.48134464
0.65073140
0.42561512
0.56142603
0.14400619
0.27169931
0.06026830
0.09542392
0.22321064
0.70868578
0.81488996
0.69520392
0.85771397
0.91248688
0.98207477
0.27895028
0.47715468
0.69235993
0.05755776
0.08388595
0.02594338
0.55843688
0.39917631
0.12943301
0.99090139
0.26329182
0.79110198
0.21321028
0.83441160
0.89723455
0.62220963
0.31575623
0.54796595
0.04782474
0.87718226
0.69197214
0.31952406
0.93745056
0.78739606
0.54273469
0.64613634
0.60228602
0.23793861
0.50385031
0.51477290
0.22001338
0.78280059
0.99192758
0.91237331
0.84035836
0.07581354
0.93831669
0.39879524
0.47498985
0.06774969
0.38969662
0.73828167
0.85885167
0.60290690
0.57269327
0.75608622
0.22511653
0.88844951
0.30405217
0.27294127
0.76563177
0.99602431
0.59246533
0.70308233
0.78342037
0.13520002
0.34921867
0.38570640
0.37313863
0.85306899
0.90047930
0.59315201
0.63586958
0.89240688
0.50552532
0.47622794
0.96822042
0.44384201
0.87502318
0.44321026
0.51159170
0.26471980
0.18149194
0.37044337
0.86762670
0.75418521
0.12652959
0.09274323
0.64263472
0.43058176
0.36568451
0.40826649
0.42660607
0.95814983
0.11134882
0.21002645
0.09334986
0.46056749
0.59573284
0.46648849
0.31363648
0.49621214
0.05964050
0.94950606
0.38861901
0.56516582
0.42573400
0.35683943
0.00900782
0.30075718
0.80004969
0.52059953
0.56547698
0.98154163
0.89104290
0.43310368
0.73572684
0.01757249
0.52584691
0.37836156
0.44815425
0.89153142
0.78662804
0.87476032
0.84968125
0.89797686
0.08478677
0.94303111
0.35854436
0.68051961
0.40951959
0.67218084
0.17673175
0.46916009
0.62168690
0.56535076
0.03432591
0.04742090
0.92219019
0.04333373
0.34817807
0.72223988
0.56393326
0.91365505
0.70378151
0.45497616
0.34675873
0.43950835
0.47254865
0.87260564
0.81786991
0.92070290
0.76413706
0.60449796
0.79546322
0.61381831
0.50247482
0.88024999
0.55684941
0.86101918
0.56076960
0.96636901
0.53320002
0.73750135
0.43552910
0.15488691
0.30285211
0.46985500
0.20230781
0.22504230
0.51318873
0.55048588
0.94728218
0.07712199
0.46414093
0.65106370
0.53209815
0.81089966
0.09057205
0.00464679
0.68350529
0.90844197
0.92534969
0.44764235
0.51293992
0.72081292
0.06146066
0.01541474
0.60106291
0.61831007
0.87643392
0.16183251
0.58467908
0.40963394
0.89933386
0.02020817
0.56452085
0.20218597
0.49006317
0.76682866
0.42722827
0.00325191
0.31731454
0.37451046
0.08037389
0.78145547
0.02557415
0.61247204
0.59235512
0.11614621
0.61711883
0.27586042
0.02458817
0.54246853
0.72350277
0.53752810
0.26328144
0.78496343
0.55294284
0.86434436
0.40327350
0.42937676
0.02617687
0.98795258
0.83901070
0.92551073
0.00816075
0.40353155
0.12769670
0.49822392
0.17036021
0.55492497
0.50147583
0.48767476
0.92943543
0.58184973
0.26913022
0.95500958
0.19432177
0.86148535
0.07115579
0.81144060
0.13734577
0.09574396
0.35390913
0.86084854
0.63327206
0.61719057
0.64581197
0.18621490
0.48153492
0.04908547
0.61559166
0.50771179
0.03703804
0.45460236
0.43322252
0.04519879
0.85813392
0.56091923
0.54342272
0.02849413
0.11584420
0.04489855
0.51616889
0.04527963
0.62674827
0.78529911
0.00028921
0.82107004
0.64678446
0.07144500
0.63251064
0.78413023
0.16718897
0.98641976
0.64497877
0.80046103
0.60361033
0.29079074
0.98667593
0.08514526
0.33987620
0.60226759
0.59285705
0.37691424
0.05686996
0.02607957
0.42211304
0.91500387
0.58699880
0.96553575
0.94349801
0.70284299
0.01043430
0.45966689
0.74812262
0.63718257
0.24496601
0.74841184
0.45825261
0.89175047
0.81985684
0.09076325
0.67588070
0.98704581
0.07718301
0.32085947
0.78750684
0.68079334
0.61165021
0.77418277
0.76593859
0.95152641
0.37645036
0.35879564
0.32844066
0.43332031
0.38487521
0.75055369
0.34832418
0.97187401
0.71608945
0.29182219
0.67471700
0.72652375
0.75148909
0.42283963
0.36370632
0.99645510
0.17125146
0.82195893
0.88820557
0.99110830
0.91272218
0.56408627
0.97815411
0.98990519
0.88494574
0.76566094
0.67069852
0.49659595
0.53984371
0.43663712
0.44812236
0.91629407
0.79543276
0.77656302
0.34961438
0.18030797
0.52711671
0.69793856
0.15218198
0.24320616
0.98976075
0.82689898
0.96972990
0.74124984
0.24973861
0.33343622
0.73770494
0.42099007
0.15539515
0.62591050
0.41209837
0.06811733
0.18999677
0.39025248
0.05802251
0.07494251
0.15591342
0.72872104
0.57153847
0.69575713
0.16535816
0.01966083
0.61205120
0.96079092
0.79622385
0.96166558
0.14109889
0.32334056
0.65960414
0.29328087
0.56654672
0.64936489
0.12017986
0.53627662
0.39061473
0.36991846
0.86971284
0.12831967
0.79090853
0.02510799
0.75423017
0.20300690
0.09322532
0.94422694
0.59325938
0.15124783
0.01916945
0.74917280
0.87996887
0.59070792
0.44492993
0.04532703
0.61036875
0.05698113
0.00611794
0.40659260
0.01864671
0.14721683
0.72993316
0.67825085
0.44049770
0.29647988
0.32761574
0.56067756
0.83275650
0.71823047
0.93059603
0.70246934
0.84655014
0.72150456
0.72757733
0.60078031
0.92451146
0.82080265
0.54500725
0.51777084
0.97205049
0.56417671
0.26694364
0.85201936
0.15488463
0.71187358
0.89734638
0.76525338
0.76885471
0.90346433
0.17184598
0.78750142
0.05068116
0.90177914
0.46575227
0.49117887
0.19825902
0.79336801
0.05185643
0.03101553
0.51159848
0.98245245
0.73348487
0.35814862
0.70395701
0.46106220
0.95892893
0.62846847
0.28186486
0.50393618
0.14623931
0.25391534
0.06811289
0.41318296
0.10593470
0.22299752
0.12505654
0.00328109
0.98825090
0.89391125
0.90674541
0.16009688
0.68141267
0.95742658
0.06187602
0.14716493
0.44860544
0.26013504
0.94053294
0.50046187
0.29115057
0.45213141
0.48291432
0.02463544
0.81028003
0.18687133
0.48569764
0.76920896
0.81533980
0.76756250
0.27314515
0.96157911
0.02147784
0.34125804
0.37476207
0.12741254
0.56425555
0.49981861
0.13069363
0.55250645
0.39372985
0.03743905
0.71260333
0.07514252
0.99486562
0.77447935
0.22230745
0.44347106
0.03461439
0.16284039
0.94393293
0.32576496
0.61497180
0.42684725
0.35040040
0.42525183
0.61371858
0.83609804
0.19446080
0.42905837
0.60366054
0.46760595
0.39063749
0.62513839
0.80886398
0.76539956
0.75255093
0.37311954
0.26521816
0.88324456
0.92562599
0.65894802
0.92068361
0.63822932
0.73409053
0.91554923
0.41270866
0.95639798
0.35902029
0.44732306
0.11923837
0.30295322
0.77308802
0.73421017
0.72980047
0.12348842
0.15946201
0.34351905
0.95958647
0.35392280
0.77257742
0.56324701
0.82152875
0.16321491
0.18838539
0.63039273
0.92861446
0.94093632
0.00351227
0.19383262
0.82418088
0.92913826
0.85278064
0.74486449
0.56736758
0.58687117
0.66041372
0.98007624
0.54326916
0.01943401
0.42739930
0.66250753
0.32238723
0.20048732
0.39671770
0.05218770
0.32397574
0.55617970
0.39570675
0.28356221
0.91010251
0.16828417
0.84680921
0.73163126
0.33149907
0.03519461
0.36202399
0.26011353
0.97613093
0.36553626
0.45394616
0.80031181
0.29467452
0.30672679
0.54517631
0.86204210
0.89359796
0.20559003
0.84211834
0.43686712
0.22502404
0.26951764
0.09937465
0.54741127
0.47000496
0.49609235
0.59959897
0.79398070
0.05227205
0.99530572
0.07754291
0.96237456
0.16358989
0.92435212
0.69400582
0.49508896
0.95954673
0.05602981
0.75520249
0.93567766
0.42156607
0.20914864
0.73598947
0.71624059
0.51587544
0.28116578
0.57828269
0.40947340
0.48675581
0.42040103
0.84634052
0.71177984
0.68991867
0.94571517
0.25919111
0.15992363
0.44180751
0.85879008
0.95390433
0.49407957
0.85409580
0.03144724
0.45645412
0.01768569
0.95579936
0.15045994
0.51277465
0.91534609
0.20648975
0.26797713
0.85102375
0.62805582
0.47712578
0.58701322
0.34429642
0.99300122
0.86817900
0.92257911
0.40247462
0.35493480
0.34298014
0.24881514
0.06671465
0.03289881
0.19453031
0.32590576
0.19282245
0.63633782
0.18469584
0.14672678
0.13041739
0.03879164
0.17817401
0.58687151
0.05647733
0.13397337
0.73733146
0.56925198
0.04931946
0.94382121
0.83722911
0.90034320
0.57187703
0.31435489
0.48735642
0.91617345
0.30735611
0.35553542
0.83875256
0.70983073
0.71047022
0.18173270
0.95864586
0.77718487
0.21463151
0.15317617
0.10309062
0.40745396
0.78951400
0.28778647
0.55418073
0.91993138
0.32657811
0.73235475
0.50680290
0.38305544
0.86632812
0.24413435
0.95230742
0.91564757
0.18795556
0.78953653
0.81599078
0.75983259
0.10389142
0.30334720
0.67600603
0.41124753
0.65888262
0.51475859
0.12107826
0.36935284
0.69649129
0.07972412
0.14653771
0.91112280
0.23290029
0.24962833
0.31857675
0.02241429
0.53741480
0.87275749
0.94234567
0.86399291
0.60511223
0.44914857
0.24704835
0.47144035
0.69328292
0.19935577
0.38708792
0.88123848
0.98889230
0.20307869
0.64107107
0.09278372
0.50642589
0.31707710
0.50403126
0.16530851
0.83183569
0.62510951
0.53466134
0.52832698
0.70483364
0.68119905
0.43944977
0.93773393
0.93082738
0.75802653
0.96014822
0.46824218
0.63078401
0.90249389
0.33223509
0.23589624
0.35164246
0.57928343
0.70733659
0.04492538
0.77863920
0.09442451
0.92616386
0.76753150
0.29750320
0.56723492
0.86031523
0.80392909
0.88431202
0.36434649
0.96923760
0.71614771
0.98945600
0.50389894
0.24447469
0.69428964
0.18509800
0.68392446
0.63202357
0.11592538
0.44195098
0.59217179
0.58416756
0.07273499
0.49466568
0.91640264
0.30863124
0.84630814
0.49568608
0.01596782
0.89123352
0.27432528
0.11039233
0.81739738
0.04185678
0.40789553
0.38463230
0.90217201
0.21182462
0.26894432
0.26651850
0.18106222
0.98509203
0.25597450
0.68496117
0.22956672
0.95026414
0.87005917
0.91349118
0.58228771
0.98598454
0.35544216
0.17445950
0.57015210
0.42817715
0.66912518
0.48655474
0.73680839
0.51543332
0.98224081
0.75277621
0.40666684
0.25656609
0.86316854
0.22406422
0.29842288
0.27106407
0.60869652
0.20059489
0.48288870
0.87764084
0.46711339
0.66395092
0.86273287
0.72308789
0.34891209
0.09229959
0.67335203
0.21897126
0.00579076
0.25563974
0.20495580
0.36123292
0.43009923
0.77510790
0.78941008
0.09922441
0.26166264
0.52621847
0.61465773
0.24390345
0.27899468
0.02132458
0.50046955
0.14216322
0.24538880
0.79889242
0.41322730
0.85408532
0.99948731
0.89611600
0.73172616
0.46660070
0.56006692
0.59445903
0.18968859
0.90897901
0.68675862
0.86304062
0.12795027
0.69254938
0.11868036
0.33290607
0.05378230
0.54877959
0.10801397
0.84319238
0.64800401
0.36967661
0.36941085
0.26266174
0.61358006
0.64840553
0.28398632
0.11404960
0.79056875
0.52937511
0.91294202
0.20379605
0.38346043
0.91242934
0.09991205
0.11518659
0.37903004
0.65997897
0.70964562
0.56871863
0.56895798
0.39640423
0.43175925
0.69690825
0.08895361
0.55043961
0.02981432
0.14273592
0.09921921
0.13782828
0.98592830
0.74722321
0.50750489
0.35533915
0.00988495
0.12108494
0.00374468
0.29387127
0.23513455
0.79431343
0.82324639
0.14807657
0.99810948
0.20670682
0.06050591
0.09802153
0.32189341
0.43953594
0.75800049
0.03153903
0.00825457
0.32695847
0.42794326
0.44001383
0.02386671
0.51689687
0.99045344
0.05368103
0.65963279
0.08967265
0.19150931
0.64556109
0.83689586
0.69901420
0.00090024
0.84678082
0.82009915
0.00464491
0.14065209
0.05523369
0.79895835
0.96389848
0.20331026
0.79706783
0.17060529
0.26381617
0.89508935
0.49249870
0.70335211
0.65308985
0.52403773
0.71160669
0.98004832
0.95198099
0.15162051
0.00391503
0.46887786
0.14207395
0.05759606
0.12851065
0.23174660
0.24910537
0.77407174
0.06864246
0.94811957
0.77497197
0.91542328
0.76821872
0.77961689
0.05607536
0.82345241
0.57857523
0.01997384
0.02676267
0.37564306
0.19057913
0.29057884
0.27073241
0.68307783
0.99393095
0.92382226
0.20711556
0.70553764
0.90387058
0.15909655
0.85715815
0.90778561
0.62797440
0.99923211
0.96538167
0.75648505
0.23097871
0.21448704
0.53055679
0.29962117
0.16260661
0.30552876
0.21504444
0.93082532
0.08514565
0.27111981
0.75427773
0.66372088
0.29109364
0.78104040
0.03936394
0.48167278
0.07161924
0.31009635
0.16475061
0.06555019
0.23391861
0.37186617
0.77108783
0.13778918
0.53096272
0.62824598
0.04557479
0.15893712
0.62747809
0.01095646
0.91542218
0.85845679
0.22544349
0.44597896
0.15807796
0.38805010
0.75150772
0.37312240
0.31887542
0.83665337
0.64424221
0.07315315
0.50037424
0.93533586
0.85419355
0.53973818
0.41700863
0.92581279
0.84983453
0.58175924
0.99136298
0.08375314
0.95362542
0.76245081
0.22154232
0.48458813
0.39069679
0.26711711
0.64352526
0.01817487
0.27807357
0.55894743
0.87663167
0.50351706
0.00492639
0.03470963
0.89156716
0.75643411
0.40783203
0.21044258
0.59308748
0.05207424
0.28359573
0.09346172
0.98741010
0.13778928
0.63319990
0.40441873
0.06360206
0.48303443
0.98617798
0.05496504
0.56678757
0.93980339
0.81741585
0.78832989
0.42439152
0.20811263
0.05544700
0.06791678
0.22628751
0.33352057
0.62686421
0.10291918
0.83703763
0.63179060
0.13762880
0.72860479
0.38822472
0.54546084
0.93904736
0.98131220
0.59753508
0.22264309
0.07477392
0.58494518
0.36043237
0.70797382
0.98936391
0.42403443
0.19100826
0.97554189
0.47899947
0.75779582
0.91534528
0.29641531
0.54612571
0.33973680
0.50452795
0.60157272
0.40765358
0.73081545
0.93509329
0.03451779
0.83373463
0.77213092
0.66630839
0.97136343
0.50073571
0.05453311
0.51682427
0.43978307
0.03584530
0.11435935
0.66242616
0.11061922
0.69930454
0.02285853
0.81859305
0.68866845
0.44689296
0.00960130
0.66421034
0.92589242
0.76739713
0.57955562
0.22230774
0.31352284
0.91929242
0.72683568
0.91509556
0.32694600
0.45765113
0.85018885
0.36146379
0.29138576
0.62231977
0.02777218
0.26274919
0.12305548
0.08230529
0.77957347
0.56283855
0.11815059
0.89393282
0.22526471
0.22876981
0.59323736
0.24812323
0.04736286
0.28190581
0.69501619
0.05696417
0.94611614
0.62090861
0.82436130
0.52567176
0.84321635
0.13788414
0.44496418
0.57005203
0.05297970
0.77191018
0.02770317
0.90316855
0.13337397
0.31908893
0.52548832
0.16114614
0.58183812
0.64854380
0.24345143
0.36141159
0.21138234
0.36160202
0.25534441
0.43664705
0.59037183
0.84858176
0.68477029
0.63773470
0.13048757
0.37978647
0.69469886
0.07660371
0.00069508
0.51906016
0.60227547
0.84391143
0.65694430
0.04723965
0.41396346
0.70992400
0.81914983
0.44166663
0.61309255
0.95252380
0.76075556
0.13858087
0.11366994
0.34259368
0.78712467
0.35712137
0.70400527
0.99850701
0.71872339
0.95934967
0.43515407
0.30909523
0.80793144
0.11992435
0.94682992
0.93841901
0.49971082
0.64152879
0.01502272
0.50040591
0.16058895
0.61729820
0.34431734
0.81753325
0.66453785
0.75828081
0.52745724
0.48368768
0.19994744
0.14054979
0.43621148
0.96070299
0.27913066
0.54988142
0.30329667
0.06625533
0.90700279
0.00730194
0.06476234
0.62572618
0.96665161
0.49991641
0.93482140
0.77458305
0.61984076
0.88165133
0.71300206
0.11955158
0.52318012
0.72802478
0.61995749
0.68376906
0.34532297
0.96427484
0.50130231
0.00986082
0.72255564
0.02875955
0.49354850
0.92250308
0.16930935
0.92975998
0.88320607
0.44844001
0.47964140
0.18650275
0.51469534
0.38664418
0.19380469
0.57945769
0.01237036
0.16045630
0.07937409
0.94719177
0.93503935
0.69921485
0.82884310
0.64804141
0.81876644
0.35202321
0.37606619
0.43872393
0.03579228
0.72138916
0.40299877
0.53709459
0.73124999
0.12555441
0.56585414
0.22479849
0.04805749
0.73516349
0.15455847
0.93126356
0.18360350
0.63419987
0.11776630
0.69829884
0.02084405
0.31157099
0.27775653
0.03321442
0.47202729
0.35713062
0.98040618
0.40706664
0.05634548
0.80924928
0.05510805
0.87511191
0.16127249
0.43117424
0.31383585
0.19706477
0.15256340
0.71683461
0.73415936
0.88381339
0.84238902
0.30001350
0.10861188
0.89044651
0.03517699
0.26317036
0.82171007
0.21878049
0.89737023
0.93947637
0.91707933
0.91821428
0.25104736
0.19483586
0.95142870
0.72307465
0.55196648
0.93183488
0.13014129
0.60831196
0.74108416
0.18524935
0.48342387
0.90235665
0.61642359
0.79725972
0.09942142
0.76898699
0.51409433
0.83358078
0.65280038
0.35648335
0.13359427
0.76141227
0.24692986
0.16877126
0.02458262
0.06863992
0.38755175
0.92195285
0.00811629
0.30463108
0.84016713
0.25916366
0.49946694
0.79159583
0.98223831
0.05143342
0.72343071
0.11237960
0.65974537
0.46451487
0.29762895
0.14316924
0.36687152
0.91405254
0.94042896
0.46629294
0.68303953
0.45452329
0.29987371
0.33583991
0.81100664
0.43346798
0.09725218
0.05793649
0.60223924
0.12183480
0.12657642
0.98979099
0.04378765
0.13469271
0.29442207
0.88395478
0.39385637
0.79388901
0.67555060
0.37609468
0.84532242
0.39898131
0.48847428
0.50506779
0.86349618
0.78610323
0.64823704
0.23036769
0.70015577
0.58866600
0.69666063
0.38319529
0.04318929
0.99653434
0.71903520
0.85419592
0.43000232
0.81628738
0.91213242
0.03224157
0.93812218
0.03870883
0.02203256
0.98190983
0.17340154
0.31645463
0.86586461
0.56725791
0.11034363
0.54141521
0.94335259
0.95566606
0.94039652
0.43182687
0.46073385
0.80389270
0.21793010
0.10897089
0.03426039
0.91808587
0.69763689
0.73092102
0.30128116
0.74082617
0.72745536
0.02031636
0.59502210
0.15745769
0.83660374
0.50715451
0.18969925
0.77472592
0.54586334
0.21173181
0.75663575
0.71926488
0.52818644
0.62250035
0.28652279
0.63853008
0.16391556
0.22987538
0.59419613
0.10431208
0.66170225
0.05492999
0.90820478
0.87963235
0.16390088
0.94246517
0.79771822
0.86153776
0.67338619
0.09899938
0.60236394
0.40084155
0.11931574
0.19738603
0.55829924
0.95591948
0.70454054
0.74799849
0.73064540
0.25040388
0.95973031
0.48728115
0.96966877
0.48791675
0.10978150
0.25619156
0.12644683
0.27369706
0.48606693
0.72064296
0.37800915
0.14776918
0.77557294
0.28621393
0.02740153
0.93947382
0.22867910
0.82511974
0.80101158
0.90206529
0.92411912
0.40337552
0.30290684
0.04343486
0.60076155
0.86120608
0.99935434
0.30530209
0.60920457
0.72999974
0.55570598
0.56893488
0.21728089
0.52537474
0.05685163
0.32706239
0.78156630
0.18329845
0.60075945
0.26763323
0.90394141
0.97876860
0.41540241
0.67951436
0.26498252
0.44280394
0.61898817
0.49366162
0.26792368
0.41999976
0.39572691
0.19204280
0.82337527
0.69863375
0.23547766
0.42413682
0.55983982
0.23483200
0.72943892
0.16904440
0.96483174
0.28514489
0.73797928
0.18211263
0.81051964
0.79483090
0.50917501
0.59208594
0.97812936
0.10993446
0.85971917
0.88207077
0.08870306
0.27512158
0.56158512
0.35368558
0.71792553
0.18057329
0.84734720
0.98584921
0.60057305
0.24307410
0.17789201
0.42394832
0.94170785
0.41336968
0.84808515
0.50154767
0.64820168
0.57752406
0.67059207
0.61303342
0.86266896
0.40857134
0.79514604
0.67318859
0.20340225
0.30432106
0.26527453
0.18153160
0.41425552
0.12499370
0.06360237
0.50295858
0.40011528
0.62518749
0.85664416
0.11804081
0.80576078
0.70399136
0.10389002
0.40633383
0.94706546
0.28178203
0.83028216
0.88877330
0.69515171
0.67836730
0.39032098
0.34335339
0.25589137
0.06091304
0.95638680
0.11856032
0.46948439
0.75153285
0.79174891
0.67288664
0.05585391
0.05702344
0.85441824
0.47010943
0.18201714
0.91802060
0.97306801
0.58213242
0.54320809
0.82971217
0.70017323
0.34896887
0.53370353
0.80406325
0.75530271
0.48076898
0.08584528
0.58558486
0.36954229
0.78099699
0.26395217
0.75986326
0.12435038
0.51984354
0.82077631
0.08073718
0.63840386
0.29026070
0.83227003
0.43015277
0.96314733
0.88812394
0.48717622
0.81756557
0.35823336
0.66919335
0.73558617
0.33130138
0.25132577
0.27879426
0.16101355
0.95149900
0.62776313
0.69471707
0.75556225
0.38306584
0.17548606
0.84140753
0.96865071
0.54502835
0.62240452
0.23260287
0.30489161
0.74675490
0.75244641
0.12566792
0.82749208
0.39085027
0.41592862
0.65976211
0.82100304
0.37907595
0.54788604
0.30817926
0.19664152
0.90611941
0.97737261
0.93222769
0.23742078
0.22869838
0.21102195
0.39843433
0.18019738
0.83878508
0.09315140
0.93575963
0.22185093
0.26863746
0.77716715
0.19050163
0.81366580
0.39957167
0.42310450
0.11855741
0.14632657
0.17555091
0.24422533
0.97381865
0.56640118
0.66015395
0.63358075
0.38740423
0.03922990
0.18146679
0.69558348
0.23587142
0.08758620
0.67295610
0.16809910
0.32500698
0.90165448
0.37912105
0.72344130
0.08185186
0.21790614
0.81659270
0.01761149
0.43975706
0.08523016
0.79477865
0.63025869
0.89889596
0.19435032
0.05336319
0.01745337
0.34067689
0.22891411
0.26167871
0.31449553
0.79531529
0.92183266
0.94807628
0.18271952
0.96106255
0.12954307
0.87830300
0.19693397
0.21712927
0.55125910
0.36503307
0.54213625
0.45291358
0.74415412
0.26557755
0.53476544
0.96206026
0.08217026
0.55237693
0.40181732
0.16740042
0.34715558
0.03207601
0.06629638
0.54150590
0.08543921
0.08374975
0.88218278
0.31435332
0.34542846
0.19667832
0.10966861
0.26726112
0.14475460
0.29238812
0.22832367
0.27429767
0.17069112
0.42525764
0.49142695
0.72195022
0.79029071
0.03356319
0.17486380
0.53444484
0.29914075
0.70962924
0.49650510
0.38131100
0.26200617
0.89832242
0.54871142
0.60916175
0.93039843
0.61500780
0.15066765
0.01583764
0.69875755
0.03285043
0.33019096
0.04418601
0.22952874
0.43985956
0.31144712
0.37428334
0.73224769
0.53977079
0.64858102
0.90293881
0.96502843
0.14000796
0.62488903
0.75531915
0.17357116
0.79975283
0.28976398
0.47271190
0.50938207
0.78626908
0.85402291
0.77138824
0.68459150
0.40273432
0.38054999
0.61498993
0.01774212
0.53121764
0.63082757
0.71649967
0.56406807
0.96101853
0.76068567
0.79359681
0.40087809
0.07213280
0.16788016
0.13312578
0.61190359
0.81646117
0.03606459
0.57693203
0.95646914
0.66095362
0.33225117
0.13004029
0.46070645
0.62201515
0.60275220
0.97008852
0.40828423
0.45677510
0.74147677
0.09287573
0.85950942
0.12202676
0.70786566
0.87725154
0.65324440
0.33869323
0.59375120
0.21731247
0.29971176
0.35443688
0.01090928
0.70058985
0.42656968
0.17878944
0.83371563
0.03847327
0.99525061
0.86978022
0.61540529
0.95171975
0.53073384
0.94765646
0.08176004
0.99144030
0.56967162
0.68451224
0.96152882
0.97795585
0.14128734
0.70300559
0.07083157
0.00079676
0.82503235
0.77869723
0.87804830
0.47827676
0.11739045
0.47179950
0.69558923
0.41710221
0.82623638
0.70649851
0.11769206
0.25280606
0.88528795
0.95140769
0.29127932
0.88053857
0.82118791
0.90668462
0.83225832
0.35192176
0.85434108
0.91401836
0.34336205
0.42401270
0.59853059
0.30489087
0.40196854
0.73981793
0.00789646
0.47280011
0.74061469
0.83292882
0.25149734
0.61866299
0.31120557
0.36888779
0.09046249
0.00679480
0.78599000
0.91669887
0.71329332
0.90368206
0.16950492
0.59858127
0.85508975
0.46078424
0.47911984
0.67627766
0.36746886
0.31137816
0.02819942
0.22180994
0.22539651
0.37156147
0.64582264
0.82392711
0.67645235
0.04779118
0.56374504
0.68434881
0.52059129
0.30435973
0.51727763
0.77208863
0.92302271
0.82848321
0.14097642
0.01348520
0.83527801
0.92696642
0.93018407
0.54857133
0.83064848
0.09968899
0.14715260
0.68573824
0.56047323
0.62627244
0.36201590
0.92794209
0.93765059
0.39021532
0.14975203
0.16304711
0.76177679
0.79557467
0.98697422
0.43822914
0.84336584
0.55071926
0.12257795
0.36395713
0.85507898
0.63985559
0.13604576
0.77810170
0.46833879
0.27702218
0.79158690
0.30361680
0.20398860
0.72177096
0.85218813
0.03463708
0.82145995
0.99934072
0.72037531
0.38193318
0.62561316
0.08239121
0.30987528
0.56326376
0.47260653
0.45962731
0.72631086
0.23438332
0.25520198
0.71328508
0.67261247
0.09856782
0.26400434
0.79519042
0.46252496
0.11908332
0.43504601
0.59857071
0.89718502
0.90338480
0.87559289
0.68877191
0.20700160
0.07958148
0.41054288
0.05918972
0.11421856
0.23200283
0.05853045
0.83459388
0.61393601
0.68414361
0.91698509
0.92381129
0.24740737
0.38959162
0.38343860
0.97371823
0.62397494
0.63864058
0.68700331
0.29658741
0.73720840
0.95100765
0.09177783
0.19973336
0.07009097
0.52682383
0.79830407
0.96727599
0.43020863
0.67389696
0.65604790
0.63721023
0.75347844
0.06659078
0.69639995
0.86769700
0.29859360
0.75493040
0.70229088
0.91252961
0.43907401
0.61927597
0.83634090
0.68648138
0.00886759
0.21977950
0.66019961
0.63284253
0.85842007
0.34720292
0.92942994
0.59562848
0.29821057
0.02120777
0.79536183
0.36830154
0.54803160
0.59366590
0.33557753
0.97824023
0.26756286
0.99162543
0.61545046
0.02104130
0.05821621
0.31185042
0.88873831
0.35680981
0.06678082
0.59102919
0.26933942
0.50585483
0.21030515
0.10568032
0.19233621
0.21917274
0.32545982
0.85253582
0.85201527
0.18387989
0.19973874
0.78144521
0.77950836
0.49794931
0.80265297
0.57487020
0.86625085
0.35068457
0.16853610
0.20182837
0.32892481
0.43609896
0.19345380
0.94437527
0.45714026
0.25167001
0.25622569
0.34587857
0.60847982
0.32300651
0.93690775
0.87781924
0.82886134
0.14721291
0.98349956
0.02119755
0.36638564
0.30895937
0.87373337
0.21840091
0.49283926
0.07347211
0.99984612
0.27234763
0.57142141
0.80249909
0.84721783
0.43767226
0.15318366
0.01575393
0.63950063
0.48210847
0.45185289
0.83295444
0.42648374
0.90899315
0.08462445
0.68270942
0.25487172
0.69310426
0.00571593
0.19177947
0.57092350
0.83457727
0.33899238
0.55442306
0.85577482
0.70537802
0.86338244
0.72950819
0.92377893
0.35622170
0.80298029
0.92362505
0.62856933
0.37440170
0.72612414
0.47578715
0.81207396
0.87930780
0.49154108
0.45157460
0.36141626
0.94339397
0.28452903
0.78790000
0.85238712
0.36915348
0.47060942
0.10725884
0.06225774
0.47632535
0.29903831
0.63318124
0.31090262
0.63803069
0.18760430
0.16667744
0.34340871
0.05098674
0.89618563
0.26718764
0.40720844
0.69916592
0.19081269
0.03577777
0.07356762
0.91693682
0.51156492
0.88564159
0.79624462
0.00310600
0.33721618
0.15766088
0.94649997
0.62174521
0.94556089
0.79888709
0.99089869
0.41617031
0.90614592
0.05315643
0.89249567
0.20518423
0.68633767
0.20339829
0.84321492
0.87394198
0.37007573
0.18662362
0.92492871
0.26626136
0.45381126
0.33213715
0.96542728
0.64462395
0.36791492
0.03899490
0.56156078
0.87947984
0.92463649
0.35780540
0.88258585
0.26185267
0.51546628
0.82908582
0.88359788
0.46102717
0.62797290
0.87449657
0.87719748
0.53411882
0.92765300
0.76969314
0.73930305
0.61399068
0.97309143
0.58251797
0.48793265
0.34316716
0.76914159
0.41286137
0.60942851
0.22295286
0.74499852
0.57485579
0.86757681
0.11291344
0.61385069
0.42913758
0.99239328
0.53848717
0.78694298
0.87497913
0.80033984
0.30240926
0.70406494
0.68393773
0.76343642
0.33203785
0.55843430
0.64063390
0.86615667
0.48608730
0.41032704
0.60545972
0.10007798
0.38341847
0.18797769
0.58801063
0.72658563
0.95711928
0.00087200
0.33601415
0.18007213
0.74587052
0.91086993
0.04764894
0.85878396
0.52472062
0.47678652
0.85117725
0.06320780
0.26372950
0.72615638
0.86354764
0.56613876
0.43022132
0.54748537
0.32957519
0.76225916
0.10591967
0.97020909
0.62841583
0.59200697
0.38053613
0.23387555
0.69208495
0.76395461
0.42185324
0.28009558
0.49054024
0.37897251
0.28096758
0.82655438
0.55904465
0.02683810
0.73742432
0.60669359
0.88562206
0.26214494
0.08348011
0.73679931
0.32535274
0.34720961
0.46295568
0.18890038
0.91334838
0.89317700
0.73638574
0.24292356
0.65543616
0.84230541
0.21313265
0.28385200
0.43431238
0.59366878
0.51772755
0.12639733
0.35762339
0.93958078
0.40649291
0.84816363
0.31855329
0.68746049
0.67471801
0.87759794
0.71429859
0.41214233
0.48429153
0.59992065
0.67428727
0.56777164
0.33671995
0.99964001
0.91498125
0.79967563
0.18854038
0.82832963
0.69285263
0.92492613
0.07125319
0.34828880
0.76723154
0.28438584
0.63214079
0.20154392
0.87805462
0.14986834
0.32794124
0.23567801
0.08944912
0.73443415
0.08384163
0.40800241
0.42189464
0.75855964
0.28560035
0.13619323
0.17070197
0.76989188
0.73611388
0.84498924
0.33766352
0.07283383
0.84462925
0.25264477
0.87250947
0.03316963
0.08097440
0.56536210
0.95809576
0.15222759
0.91365090
0.72532730
0.43661342
0.54579169
0.92687122
0.31466804
0.69566003
0.25481246
0.55034605
0.78510915
0.98924662
0.63418768
0.19311156
0.41114126
0.39274732
0.47871192
0.54733449
0.56344929
0.24860380
0.28344836
0.40843854
0.58626732
0.35628220
0.25306779
0.83891209
0.22879166
0.28623742
0.91988648
0.79415376
0.24433318
0.07211407
0.70780466
0.96966048
0.50872749
0.25359634
0.89653170
0.82339553
0.94925637
0.15134416
0.37374158
0.73436552
0.14059078
0.00792926
0.92747708
0.55173203
0.40067658
0.40618900
0.09906652
0.96412588
0.65479280
0.38251488
0.37256441
0.24106011
0.73879708
0.62563220
0.07997220
0.96758874
0.91186962
0.99985868
0.76174250
0.15620280
0.07197275
0.46954716
0.12586328
0.58070024
0.72314350
0.02239498
0.40409578
0.67239987
0.17373914
0.77783736
0.40676540
0.31432992
0.78576662
0.33424248
0.86606195
0.18644320
0.74043148
0.96512847
0.15056908
0.39522428
0.34764336
0.52313349
0.63628439
0.08644044
0.14876569
0.71625659
0.05402918
0.06063531
0.71611527
0.81577168
0.21683810
0.78808802
0.28531884
0.34270139
0.36878827
0.00846234
0.36509637
0.77288405
0.68086221
0.53883551
0.55072141
0.08762761
0.85316543
0.33648803
0.42187009
0.71922738
0.52293123
0.16230157
0.68435585
0.67350031
0.55752585
0.03199920
0.19663380
0.19381024
0.11843964
0.34539949
0.91006683
0.17246882
0.40603480
0.62618210
0.98824050
0.62287290
0.41427013
0.27355933
0.96557429
0.78305839
0.28202167
0.33067065
0.55594244
0.96288388
0.86950616
0.10666385
0.05051149
0.72267159
0.44315187
0.47238157
0.44189896
0.96608310
0.63468314
0.12625481
0.63958341
0.19220899
0.15825402
0.83621722
0.38601923
0.27669366
0.18161671
0.29608606
0.44916248
0.58765151
0.92226816
0.43740297
0.21052441
0.33653828
0.71096231
0.17609870
0.11959668
0.99298398
0.50676935
0.67553912
0.95586786
0.37627552
0.78220296
0.00637934
0.09894710
0.22535483
0.47876092
0.54084607
0.19143794
0.11344406
0.66710088
0.83102135
0.30565305
0.82535490
0.66723857
0.69167228
0.10204856
0.84885527
0.98775834
0.55121103
0.43650678
0.91002649
0.98861401
0.64703119
0.24656477
0.69957631
0.82312989
0.36616145
0.69256029
0.32989925
0.04170056
0.64842815
0.70617476
0.82390353
0.65480749
0.80512187
0.04925836
0.13356841
0.34596794
0.24069630
0.24701247
0.01306882
0.07171765
0.55266552
0.83842372
0.73895621
0.24433780
0.94047227
0.58781149
0.23209614
0.49168331
0.02431827
0.14212263
0.48029732
0.67134946
0.38868740
0.17987363
0.49447936
0.75484885
0.87243392
0.82437860
0.79654942
0.52086207
0.53055337
0.62045294
0.17566956
0.33567524
0.66971130
0.30923797
0.68164317
0.91040760
0.55625044
0.69471199
0.98212525
0.10891596
0.53313571
0.72108146
0.35325376
0.47360798
0.30889295
0.58534989
0.96529129
0.33321122
0.72747252
0.44558861
0.00456068
0.11615992
0.62546224
0.49904004
0.87100878
0.49789616
0.32341864
0.66755819
0.01875822
0.85397201
0.28801114
0.19442778
0.18964725
0.95772244
0.50366575
0.87129042
0.86813005
0.05991618
0.56600241
0.85025530
0.16883214
0.09913812
0.57133676
0.52208590
0.57274611
0.88022971
0.10743579
0.53803740
0.21344093
0.83490831
0.98362601
0.21800162
0.95106824
0.60908824
0.71704166
0.82207701
0.10698440
0.04046030
0.48963521
0.12574263
0.89443231
0.77764635
0.32017041
0.08407956
0.73536879
0.82383616
0.95536998
0.60349883
0.88375234
0.52137239
0.45375413
0.05258448
0.62051051
0.02509089
0.57467038
0.19325662
0.90532060
0.68210617
0.73129401
0.11876153
0.51701449
0.71492002
0.33676315
0.46808272
0.32400827
0.05380480
0.29015974
0.43099267
0.09426510
0.77979495
0.55673530
0.98869741
0.55744129
0.87690570
0.07277697
0.29281008
0.70074186
0.02814695
0.89630892
0.58449420
0.54951934
0.35006305
0.63707868
0.17002985
0.37515393
0.21174906
0.36328646
0.28047453
0.89385524
0.09458048
0.39923607
0.41086972
0.80950050
0.73599921
0.87895245
0.13350876
0.78980402
0.16911219
0.56450143
0.88406912
0.94890714
0.12123672
0.87276653
0.50634843
0.99814243
0.94554350
0.79915851
0.69888429
0.97369045
0.69546743
0.28337849
0.52320979
0.04553048
0.92045717
0.69323963
0.42068441
0.13220624
0.05652609
0.70115894
0.02606147
0.15110657
0.10039501
0.43693120
0.96060707
0.83639422
0.31588365
0.09411583
0.62619824
0.48499584
0.65861726
0.51026736
0.43390297
0.77985398
0.38303390
0.94025140
0.77799641
0.32857740
0.73940991
0.47688069
0.30226785
0.43487734
0.76025918
0.82547764
0.48040782
0.68071636
0.51871727
0.90109223
0.81292259
0.57524337
0.60225117
0.83898407
0.72634994
0.70264618
0.27591526
0.68695700
0.53904040
0.59179891
0.78107283
0.16523865
0.07679475
0.43969008
0.67550601
0.51069772
0.21954406
0.05853990
0.45094912
0.99754047
0.38711730
0.19035903
0.47442116
0.68938516
0.62523637
0.23468035
0.51486280
0.10564419
0.91539670
0.03358007
0.00673641
0.72831929
0.60882344
0.60898758
0.56730336
0.33517337
0.31163377
0.84321862
0.02213037
0.85067417
0.43501753
0.80320320
0.01591282
0.51181228
0.24289328
0.69141882
0.02251000
0.46243734
0.74995873
0.47345912
0.45997781
0.13707603
0.66381815
0.93439897
0.82646119
0.28905452
0.16907932
0.34132398
0.39469871
0.08447602
0.37490405
0.40143512
0.81279531
0.98372749
0.01042271
0.38009867
0.31890086
0.32205647
0.22331729
0.34103123
0.17273064
0.65833483
0.14423443
0.18864346
0.17014711
0.38712771
0.88006228
0.19265711
0.84956505
0.63002100
0.66611623
0.30954286
0.76709703
0.32993437
0.24394184
0.59355822
0.61898889
0.41302116
0.93488220
0.01368760
0.49749718
0.30978626
0.41512272
0.31029249
0.29351374
0.42554542
0.69039116
0.61241460
0.74760190
0.91370846
0.95344583
0.92033254
0.57204329
0.09768026
0.10897599
0.74219039
0.48480797
0.98903827
0.93484750
0.33437303
0.61905927
0.60096373
0.64391589
0.38615631
0.93089810
0.88785773
0.97971453
0.54988699
0.30087888
0.91459673
0.56357459
0.79837606
0.22438299
0.97869731
0.10866855
0.51789673
0.40424274
0.79905971
0.13031133
0.15184463
0.71276817
0.08375717
0.07217717
0.28481146
0.18143743
0.18115316
0.02700185
0.66624540
0.17019143
0.96184935
0.00061843
0.78925070
0.56281308
0.64453432
0.17540701
0.49371118
0.53239205
0.15512154
0.04359818
0.83327093
0.06971827
0.60717277
0.63164699
0.29410125
0.58587008
0.74031554
0.81199798
0.99011282
0.53937526
0.94230932
0.14195745
0.25214343
0.02606648
0.21413462
0.53695488
0.20750391
0.39528778
0.56395673
0.87374932
0.56547921
0.52580609
0.87436774
0.35472991
0.08861917
0.51890206
0.53013692
0.58233035
0.05129411
0.68525845
0.62592853
0.88456504
0.75497672
0.23310130
0.51621203
0.04907797
0.81897138
0.25652757
0.86107595
0.80908420
0.79590283
0.80338527
0.95104165
0.04804626
0.82945176
0.16517627
0.58500114
0.03695567
0.56046404
0.14895787
0.91070499
0.12594325
0.67476396
0.78507273
0.48067316
0.76338313
0.30397479
0.01081007
0.34571347
0.35526890
0.69606852
0.97164200
0.23983394
0.45104524
0.20474330
0.75604597
0.50012321
0.02371467
0.01257354
0.36119917
0.83279887
0.80847637
0.16458444
0.78384052
0.85652262
0.99403620
0.94901679
0.44152376
0.03099186
0.50948083
0.59048164
0.94169685
0.63542408
0.26524560
0.72676958
0.11609723
0.02862872
0.03074438
0.12690731
0.37434220
0.38601328
0.82297583
0.34598420
0.62584722
0.27402107
0.55072749
0.38189319
0.77414428
0.57444217
0.39446673
0.13534345
0.40724104
0.20294309
0.29992789
0.19108156
0.05946572
0.29396408
0.14009834
0.50098948
0.32495595
0.64957917
0.09147112
0.26665280
0.28500325
0.35671671
0.99342238
0.40110048
0.38534544
0.02416676
0.52800779
0.75968763
0.41018004
0.35098362
0.10567183
0.03602725
0.62500469
0.65639932
0.41792044
0.39914898
0.23084148
0.81238717
0.53449243
0.63808252
0.01533026
0.83442032
0.82916408
0.07479598
0.12838440
0.96926242
0.57578546
0.45334035
0.61884159
0.66725658
0.71999315
0.90384484
0.02397329
0.71341553
0.30494532
0.40931873
0.73758229
0.83295311
0.16900636
0.14776233
0.18393673
0.27467818
0.18378958
0.80894142
0.93107750
0.60171002
0.20809040
0.16191899
0.41409718
0.74258283
0.80000151
0.42942745
0.57700315
0.62916558
0.50422343
0.70538755
0.59842800
0.08000889
0.15872790
0.21726959
0.74726546
0.87872106
0.12111442
0.77123875
0.59213659
0.42605974
0.18055748
0.32971888
0.25901285
0.34956384
0.47748121
0.44294958
0.62424202
0.66127078
0.25189100
0.55531953
0.26298080
0.45998140
0.71723852
0.67707799
0.20256424
0.51724002
0.10650543
0.77956739
0.14640561
0.61072886
0.48495494
0.74483361
0.69073774
0.64368285
0.96210320
0.43800321
0.52240390
0.08321762
0.20924196
0.11454049
0.50927736
0.38979944
0.44425937
0.76829021
0.73936328
0.92174058
0.21123979
0.36360531
0.58301136
0.46313079
0.91892484
0.84599216
0.92311219
0.63616335
0.52307015
0.12567643
0.15340337
0.62957558
0.90524382
0.29980898
0.24030444
0.39019876
0.04464259
0.93104219
0.03388161
0.00674579
0.36904539
0.55628551
0.08996341
0.57828736
0.67082600
0.59924077
0.96808680
0.11508537
0.36753098
0.70745008
0.03682594
0.57877077
0.07105539
0.61983730
0.04190156
0.98998023
0.46582946
0.96501375
0.62614358
0.98889961
0.09069018
0.77954695
0.61847519
0.99593400
0.07935593
0.85877964
0.38613276
0.12399852
0.78982182
0.42001436
0.13074430
0.15886722
0.97629987
0.22070771
0.73715457
0.64712587
0.81994848
0.70524137
0.76221123
0.18747946
0.41269146
0.79903717
0.76625022
0.48374685
0.41887447
0.80815178
0.47372708
0.88470393
0.77316553
0.09987065
0.87360354
0.86385571
0.87941760
0.49207874
0.85978970
0.95877353
0.35085838
0.24592246
0.08277204
0.14068020
0.66593683
0.21351635
0.29954742
0.64223670
0.43422406
0.03670199
0.28936256
0.25417253
0.74194337
0.05157379
0.44165199
0.15463482
0.85061096
0.20790221
0.63838167
0.26948544
0.01605399
0.11210875
0.15418937
0.78921951
0.21197940
0.02779291
0.65307522
0.09139700
0.51987165
0.51286492
0.05017053
0.87073003
0.75878739
0.13294257
0.01141023
0.42472421
0.34645892
0.31095764
0.06696091
0.78068297
0.34765963
0.35632347
0.03485551
0.08960300
0.40789726
0.47650749
0.24423782
0.25850823
0.68440970
0.88261950
0.52799366
0.70046369
0.99472824
0.68218303
0.48968321
0.20670764
0.70997594
0.14275842
0.29810464
0.22984759
0.65562335
0.34827517
0.10057762
0.41441073
0.48121774
0.11198785
0.83913495
0.82767665
0.42294549
0.90609586
0.60835963
0.77060512
0.26241933
0.64321513
0.86020812
0.67031659
0.11972263
0.10444594
0.92882482
0.80413233
0.98706544
0.45681848
0.50459602
0.98179368
0.13900152
0.99427923
0.18850133
0.84897746
0.13703765
0.48660597
0.07882505
0.79266100
0.83488114
0.17940267
0.20707174
0.31609887
0.29139052
0.04620668
0.14377553
0.71433601
0.95230254
0.75213515
0.48494113
0.21472187
0.39535029
0.34514925
0.88503846
0.51507292
0.44959519
0.81386328
0.31920525
0.43666063
0.27068177
0.82380128
0.41845432
0.40968328
0.81808050
0.60695564
0.25866074
0.95511816
0.09356161
0.33748579
0.74777916
0.92844275
0.51688847
0.95485090
0.24454162
0.80827899
0.00105758
0.38831715
0.52261500
0.95336012
0.14045230
0.00755613
0.16808199
0.53580259
0.35270538
0.05312045
0.05087550
0.80230057
0.86698373
0.37008075
0.23896120
0.13766550
0.19388203
0.65741552
0.54734878
0.01196253
0.26437117
0.80600952
0.96708069
0.35793278
0.14349531
0.71485985
0.28637553
0.66038378
0.66971075
0.53091715
0.46866277
0.67076833
0.91923429
0.99127777
0.62412845
0.05968659
0.99883389
0.79221044
0.59548918
0.35153927
0.84533089
0.64636468
0.15383984
0.71231462
0.01644544
0.39280104
0.84998012
0.21032747
0.05021657
0.39732890
0.22229000
0.31458773
0.20333842
0.18937070
0.67252051
0.34683373
0.90423055
0.95889604
0.00721751
0.57394130
0.48981318
0.47588028
0.24470963
0.40904747
0.46715804
0.86883807
0.46873406
0.46599194
0.66104851
0.06422324
0.81753120
0.50637940
0.71058793
0.97137104
0.21869403
0.72703337
0.36417209
0.06867415
0.93736084
0.41438865
0.46600305
0.15965084
0.72897638
0.66934147
0.34902154
0.40149690
0.01617520
0.25325208
0.36039293
0.02339272
0.82719338
0.85020611
0.49927299
0.07190301
0.25925359
0.96643104
0.94074108
0.72798765
0.43242297
0.60178959
0.79221089
0.24995418
0.10816900
0.50279882
0.22132522
0.32686303
0.22983219
0.58549731
0.39553718
0.16719302
0.99988596
0.86154023
0.32684386
0.72886234
0.53088170
0.67586540
0.13035924
0.54705690
0.92911749
0.49075217
0.57044962
0.75631087
0.34095828
0.06972261
0.82821387
0.60021187
0.03615365
0.76895495
0.32819952
0.46857662
0.37074455
0.12041041
0.71853080
0.47891355
0.62320924
0.93985602
0.80577657
0.85304143
0.52535333
0.20131375
0.02023445
0.52523929
0.06285397
0.34707831
0.25410163
0.59373567
0.02294371
0.38446087
0.14079258
0.95206120
0.87521304
0.71124219
0.70837207
0.21617133
0.78096481
0.53658594
0.81638320
0.81711846
0.30554089
0.14458272
0.28569508
0.67628544
0.26499313
0.00422588
0.15519899
0.88820237
0.94408191
0.96097556
0.74124379
0.46943524
0.16228930
0.76147824
0.99467452
0.22514328
0.10855656
0.24877616
0.81887895
0.13150027
0.63323703
0.95967153
0.08356147
0.50845007
0.67091372
0.79193354
0.72462139
0.45187853
0.32851948
0.54100459
0.26899698
0.63406037
0.68558731
0.55469207
0.31034581
0.95058044
0.55891795
0.46554480
0.83878281
0.50299985
0.42652036
0.58002660
0.97243509
0.58880966
0.34150485
0.96710961
0.81395294
0.45006140
0.21588577
0.63283189
0.58156167
0.84912280
0.59250342
0.66512315
0.35757286
0.26341714
0.45705668
0.08219426
0.71529566
0.78557616
0.62319885
0.98429265
0.41963653
0.30878616
0.53898471
0.72998235
0.25936660
0.09790266
0.19552715
0.09814941
0.60090251
0.62204751
0.67817601
0.57333760
0.21085717
0.01968086
0.54044721
0.02481011
0.46974226
0.75633298
0.65764200
0.05130393
0.60545578
0.25014542
0.71642708
0.96302864
0.51356256
0.17348376
0.04522290
0.22885822
0.95905993
0.66842176
0.21315087
0.37869646
0.97720792
0.75213558
0.10867880
0.23657452
0.85003824
0.30420595
0.33472393
0.45094075
0.92625346
0.01289994
0.02427835
0.13711063
0.03258080
0.56472557
0.16192074
0.50232306
0.32105855
0.81956274
0.55362699
0.92651433
0.06970816
0.27005407
0.88954297
0.58327072
0.44353784
0.93476588
0.81212894
0.40259776
0.60318763
0.02527981
0.78129422
0.58039555
0.77741538
0.88997302
0.81697006
0.62745362
0.19417898
0.15169399
0.07839437
0.12043244
0.16459393
0.10267273
0.25754307
0.19717473
0.66739829
0.41946381
0.69949778
0.98845684
0.23902655
0.25312478
0.91497117
0.30873472
0.52317885
0.80451415
0.89200544
0.96671668
0.73928003
0.70413438
0.36931445
0.34246766
0.72941418
0.15060867
0.92286321
0.50682957
0.04058169
0.73983327
0.13428319
0.23476067
0.89152726
0.21267756
0.35519310
0.05612119
0.31535029
0.61273617
0.25329591
0.98274858
0.03219998
0.95279370
0.97120542
0.27122653
0.20591847
0.88617660
0.57996124
0.72909732
0.69069075
0.47196668
0.69581401
0.42997077
0.17610106
0.06512845
0.77243843
0.90551524
0.21573712
0.69530163
0.41234480
0.25631881
0.43513490
0.54662799
0.49107947
0.32666216
0.75930555
0.84627257
0.38278335
0.07465584
0.45900874
0.63607927
0.05740442
0.49120872
0.58887296
0.02860984
0.76243524
0.79479144
0.91478644
0.34239649
0.52388876
0.60547719
0.81436317
0.21970276
0.03544796
0.99046423
0.28483122
0.80788639
0.89597947
0.50056833
0.50318802
0.30832427
0.75688714
0.93832292
0.85495226
0.24796661
0.26498509
0.61425781
0.09423919
0.64776844
0.68891365
0.55324793
0.28384770
0.74631807
0.04445664
0.87272066
0.77492791
0.80689189
0.66751210
0.68971436
0.14928837
0.19140086
0.29519154
0.96365154
0.41110362
0.33063950
0.95411577
0.69593484
0.13852589
0.85009523
0.19650317
0.64171391
0.15841950
0.95339031
0.58003684
0.01337177
0.20135692
0.84502192
0.62762958
0.29559611
0.49279036
0.31654323
0.84884404
0.77663806
0.06286130
0.89330068
0.64935872
0.83778922
0.70019257
0.31687083
0.52750357
0.84948094
0.50827168
0.82269511
0.81313248
0.91937530
0.15333462
0.76724825
0.61531014
0.29186051
0.61734349
0.81181331
0.93357442
0.77576299
0.76520362
0.51361125
0.78913476
0.96656054
0.35863317
0.41676433
0.26215665
0.85142353
0.73330757
0.11100069
0.62806159
0.79616887
0.00430137
0.27742032
0.63395808
0.70449393
0.59429114
0.16146165
0.55397487
0.10256282
0.98415677
0.36710736
0.02193813
0.13749138
0.13435561
0.63724827
0.42935189
0.75169910
0.44906158
0.36292631
0.52746209
0.21426519
0.87653756
0.31659684
0.18082573
0.23517073
0.73336118
0.44298239
0.08659426
0.46666874
0.55398307
0.71465585
0.26283761
0.55828444
0.99207617
0.89679569
0.26277837
0.58636731
0.05825734
0.81675325
0.68893013
0.04241411
0.18386060
0.71086826
0.17990549
0.31821621
0.34811653
0.60925738
0.06991530
0.79717810
0.97218369
0.59737739
0.01144329
0.84872125
0.91397423
0.19226903
0.08389198
0.64733541
0.63525141
0.17048624
0.11400415
0.18923449
0.88514209
0.37684176
0.74751893
0.87721826
0.27363745
0.01029730
0.46358557
0.33189479
0.82705054
0.15251570
0.37430890
0.01091114
0.86338396
0.55421439
0.32912735
0.21150049
0.16347177
0.39904266
0.00867859
0.13565546
0.99642005
0.02012188
0.98437671
0.91039428
0.21239091
0.06826868
0.55772970
0.84764232
0.23875492
0.67173385
0.03687681
0.12389702
0.04857561
0.78439574
0.00111528
0.32221306
0.79469304
0.46470085
0.65410785
0.62174358
0.61721656
0.02841675
0.63265472
0.48060052
0.58263115
0.96178208
0.69210101
0.74610292
0.36082474
0.70077960
0.88175838
0.35724479
0.72090148
0.86613509
0.26763907
0.93329239
0.93440377
0.82536877
0.78093471
0.17315869
0.49710261
0.81781153
0.29705571
0.54567822
0.60220726
0.29817099
0.86789128
0.39690030
0.76287184
0.52199914
0.01864388
0.38008839
0.55041589
0.65129860
0.86068891
0.13304704
0.61308068
0.55278992
0.87914996
0.97390541
0.25356952
0.76090834
0.33115020
0.97447100
0.62704343
0.59878927
0.90776339
0.56144720
0.42415804
0.68869810
0.73460589
0.92126065
0.50650963
0.03166160
0.46693887
0.10871689
0.32983258
0.33483016
0.50561719
0.09270442
0.85682930
0.52426107
0.47279282
0.40724519
0.17555967
0.33348173
0.54029223
0.78864034
0.88627165
0.41944219
0.76254576
0.13984117
0.18035053
0.09369596
0.11431217
0.80739396
0.69248523
0.02207556
0.36884116
0.11664326
0.71077367
0.10344705
0.03790391
0.21728330
0.13510865
0.50484279
0.32600019
0.46494123
0.83967295
0.83161738
0.55764565
0.69650224
0.35587844
0.03043847
0.10374743
0.53143811
0.36392020
0.64403966
0.32007845
0.25019185
0.06348185
0.08262421
0.39003303
0.24383238
0.17632016
0.50434520
0.05122634
0.86880539
0.52642076
0.42006750
0.98544865
0.23719443
0.52351455
0.02335257
0.45447773
0.65862319
0.52819536
0.78047791
0.12356442
0.36786830
0.61209529
0.68121008
0.06437055
0.96797373
0.71164854
0.16811798
0.49941184
0.07556874
0.81215764
0.81949029
0.32576059
0.87563948
0.90211450
0.71579362
0.11947186
0.07843466
0.22013882
0.17069820
0.94724005
0.74655958
0.59076570
0.93268870
0.98375402
0.11428024
0.95604127
0.43823174
0.77290344
0.48423662
0.21870966
0.89646786
0.85210493
0.83080495
0.57767794
0.91647548
0.79877868
0.28932648
0.08459345
0.29819052
0.36489522
0.89675109
0.11768081
0.69065581
0.77239057
0.01979531
0.40644943
0.89186243
0.09822997
0.62658825
0.06256063
0.04547001
0.37314784
0.65332632
0.97815871
0.35690185
0.76760657
0.93419998
0.79513360
0.54051001
0.41843661
0.01384325
0.43697787
0.27054153
0.84464820
0.01465581
0.18701701
0.64342688
0.30398229
0.27161046
0.94161740
0.66887751
0.16836155
0.05929821
0.35953333
0.94075212
0.07909351
0.76598276
0.83261455
0.17732348
0.39257101
0.89517518
0.22279349
0.76571885
0.54850151
0.20095221
0.12262070
0.31610807
0.13515219
0.91775430
0.85661808
0.55358880
0.93159755
0.29359595
0.82413033
0.77624575
0.30825176
0.01114734
0.41967263
0.61223405
0.28275780
0.36129003
0.28111156
0.45111936
0.42058824
0.64064489
0.39187148
0.49968175
0.40662765
0.22448603
0.67700523
0.79919866
0.11966121
0.89979873
0.56491751
0.66816272
0.10075094
0.68753821
0.98427080
0.23590313
0.60529251
0.84088888
0.78949192
0.53689006
0.13448483
0.61362225
0.31313581
0.44273659
0.62476959
0.73280845
0.05497064
0.90752739
0.09409848
0.33608220
0.35864675
0.51468672
0.97672709
0.75051823
0.01436847
0.38335474
0.97500426
0.69137371
0.18255339
0.09466547
0.59117244
0.74747090
0.76282819
0.69192337
0.43500911
0.74709899
0.92782650
0.04030162
0.58798786
0.71731842
0.57719169
0.72247269
0.33094067
0.89032750
0.16520928
0.95571026
0.62313595
0.22017993
0.86323765
0.71723443
0.55626213
0.22188439
0.23192114
0.53298922
0.97240262
0.24628962
0.91634396
0.94740687
0.93766333
0.09889735
0.04207235
0.52883576
0.84636826
0.80490054
0.22075913
0.28137737
0.55199953
0.14858563
0.32167899
0.13998739
0.86590405
0.89887068
0.86246008
0.19684471
0.78919818
0.02766937
0.15255497
0.41233412
0.24784929
0.01579261
0.12956855
0.80411142
0.23767700
0.36148969
0.33710065
0.21007962
0.60777931
0.25344460
0.15748649
0.54544264
0.35234196
0.19955884
0.07427840
0.19871021
0.00445938
0.29503753
0.48008758
0.55645890
0.44362316
0.80176657
0.69644629
0.30952720
0.70063725
0.55890638
0.50637192
0.48983543
0.58657574
0.65892689
0.90216955
0.83442504
0.67471950
0.03173810
0.63853646
0.91239650
0.39322780
0.97563711
0.12247612
0.00100711
0.22908171
0.27996262
0.54644975
0.58142367
0.47952146
0.62072814
0.78013388
0.48398083
0.91576567
0.26022147
0.04043974
0.35938883
0.06198804
0.73688603
0.66891604
0.76262529
0.29579240
0.17528795
0.25246072
0.88236815
0.83421484
0.15463027
0.71679318
0.50893434
0.18636838
0.35532964
0.42133084
0.57959617
0.33096675
0.54380697
0.58060328
0.56004847
0.82376959
0.12705303
0.14147214
0.30329104
0.74778117
0.92160602
0.78727188
0.66354685
0.18182749
0.82771161
0.02293568
0.24381553
0.56459764
0.69185171
0.00644082
0.86039005
0.86713967
0.25890154
0.74275819
0.70135451
0.41353181
0.45955137
0.21028885
0.59990019
0.81488102
0.63161969
0.17949636
0.14584777
0.17542665
0.76009964
0.70589624
0.99919624
0.88715267
0.84736837
0.30248728
0.63493385
0.76897439
0.08975916
0.29848069
0.95080188
0.91747078
0.32141637
0.19461741
0.48206842
0.01326808
0.20105823
0.34245846
0.88040775
0.45995977
0.08521665
0.58176225
0.87349158
0.54476803
0.79205110
0.47339176
0.35964905
0.42367079
0.65288812
0.50549682
0.59909744
0.41298776
0.21139306
0.59829368
0.30014044
0.05876143
0.90078096
0.93507428
0.82773582
0.99054013
0.23355497
0.77853770
0.90801090
0.55497134
0.97315511
0.39007932
0.56823942
0.17421333
0.73253778
0.44864717
0.63417310
0.81775443
0.03040942
0.50766468
0.36252246
0.82246052
0.98105644
0.72217151
0.24613130
0.63394456
0.22766833
0.84522875
0.04693232
0.43906138
0.44352243
0.34707276
0.49782281
0.34430339
0.28214704
0.32555863
0.33484352
0.51570201
0.10409633
0.24285442
0.07067335
0.07725144
0.63293373
0.63891277
0.25146478
0.36547151
0.08755994
0.88563788
0.18322595
0.11796936
0.39330255
0.54574841
0.94042988
0.37435899
0.26791992
0.18656118
0.00830355
0.49558825
0.03178993
0.05523587
0.93464963
0.47531235
0.40230863
0.43247244
0.81961574
0.68445567
0.75803108
0.15445926
0.20015768
0.86212741
0.39731367
0.27083103
0.93937885
0.03024740
0.90974380
0.19084363
0.39571892
0.99730373
0.07648151
0.57894486
0.11527309
0.46978406
0.12469327
0.05570296
0.84414306
0.39261319
0.24226414
0.85244660
0.88820143
0.27405407
0.90768248
0.82285106
0.74936642
0.30999111
0.25532350
0.56898216
0.99444677
0.01335458
0.72344142
0.19460445
0.87548199
0.12075509
0.46543548
0.81486084
0.15100250
0.37517927
0.00570447
0.54672142
0.37248300
0.08218598
0.12566628
0.48775609
0.55197005
0.25035955
0.54345906
0.39611310
0.64297273
0.78572320
0.24855971
0.53117416
0.05977727
0.15624218
0.35402522
0.80914369
0.46623329
0.60934872
0.37812586
0.46068006
0.62270330
0.10156728
0.65528451
0.49818528
0.22232237
0.12071999
0.31304612
0.37332487
0.49589926
0.31875059
0.92004629
0.86838227
0.40093658
0.04571256
0.35613836
0.95290662
0.29607211
0.89959742
0.34901972
0.93904484
0.68532062
0.59757943
0.47021900
0.74509789
0.75382161
0.82424422
0.55424158
0.22005490
0.43359294
0.93236744
0.68073496
0.05629624
0.03393472
0.33601947
0.55448152
0.25625709
0.45673946
0.86752765
0.62958197
0.95263872
0.18627824
0.54962825
0.82102098
0.58721482
0.59534082
0.17715934
0.54012144
0.89141293
0.07675676
0.88914116
0.83045777
0.76207738
0.48672059
0.30067677
0.50717527
0.24054220
0.12492099
0.06141685
0.46059710
0.55851394
0.99378430
0.14133206
0.61481018
0.02771902
0.47735153
0.16929170
0.28397611
0.93409099
0.03681935
0.91355808
0.88672971
0.22309759
0.46318633
0.70775069
0.81031240
0.05852715
0.88491004
0.35043384
0.94994007
0.96166679
0.23957500
0.78039784
0.72374417
0.72629560
0.08107461
0.23091944
0.96683780
0.20599561
0.29233629
0.42743490
0.76450955
0.28612059
0.56876697
0.37931972
0.31383961
0.04611850
0.54861142
0.59781572
0.98020949
0.58543077
0.51137379
0.86693921
0.80852836
0.97456012
0.57468990
0.61884076
0.03308726
0.45959994
0.96927460
0.98302734
0.42126673
0.20884960
0.76342518
0.14501090
0.93514520
0.84449979
0.37593034
0.90198300
0.05049540
0.66826664
0.32941790
0.81500495
0.95438723
0.89818487
0.19432467
0.26822683
0.94430337
0.74293610
0.86604255
0.92451286
0.32836687
0.37741634
0.79145207
0.13689522
0.35197646
0.36614197
0.75573598
0.38506372
0.82574191
0.72501058
0.36809106
0.24700864
0.93386018
0.13151624
0.39201954
0.86900537
0.97601603
0.76794988
0.77098837
0.02651143
0.43621652
0.10040627
0.84151638
0.39060375
0.99859113
0.03584105
0.65883058
0.94289450
0.77877715
0.52487313
0.86740737
0.10714402
0.90228947
0.65885943
0.24403924
0.25426593
0.02500140
0.99977522
0.63932965
0.85074331
0.72478579
0.00742071
0.09775194
0.65864597
0.13893695
0.48977148
0.52765134
0.11495298
0.25772137
0.29863971
0.14146441
0.69393789
0.39904597
0.98298080
0.08454163
0.39763711
0.01882185
0.74337221
0.34053161
0.79759900
0.26824534
0.20793897
0.90474302
0.17053481
0.86679841
0.14878225
0.42480074
0.89179981
0.14855747
0.06413038
0.74254312
0.87334326
0.07155109
0.84029507
0.53198922
0.21048804
0.33006655
0.05964056
0.32544102
0.58778792
0.35828027
0.46690544
0.28172580
0.75732624
0.44988624
0.36626743
0.15496335
0.46870809
0.10963965
0.49549496
0.26630709
0.37788499
0.70343393
0.17105010
0.54841979
0.57023234
0.31983235
0.97322053
0.46203215
0.46838982
0.03735091
0.20457527
0.34173308
0.10890201
0.04487034
0.87372230
0.31939005
0.37493689
0.93336286
0.64483108
0.96272480
0.29164313
0.11173652
0.24445060
0.04896937
0.56162275
0.61071804
0.20393272
0.03033084
0.72035768
0.69942768
0.29663792
0.09824267
0.40286161
0.46768803
0.64666246
0.97309396
0.78752038
0.61988299
0.43512611
0.25591020
0.65723390
0.63970138
0.59764328
0.76613591
0.68457172
0.47136558
0.08552597
0.05950861
0.40472845
0.73035704
0.02223341
0.69637158
0.84209356
0.26668401
0.74534095
0.40371631
0.87740205
0.94927367
0.43404715
0.59775973
0.64870135
0.73068507
0.69600240
0.05156296
0.19837310
0.34266486
0.02465692
0.98589348
0.96254785
0.45978303
0.24180368
0.61978176
0.09948441
0.83944696
0.38591767
0.78405613
0.31081254
0.47144364
0.84356474
0.71554099
0.20180068
0.86579815
0.41191257
0.04389424
0.13248216
0.15725352
0.44761055
0.00988421
0.10652719
0.88165771
0.60764394
0.75522854
0.61234278
0.30364634
0.80679150
0.81071588
0.64631120
0.83144842
0.79660935
0.60885905
0.29123145
0.03841303
0.22864081
0.39071587
0.87785999
0.61455848
0.17477200
0.18867254
0.08600211
0.01833674
0.90421353
0.28780279
0.88413489
0.31612609
0.33169704
0.01661705
0.47337961
0.77930759
0.02650126
0.57990680
0.66096529
0.63414520
0.33513534
0.27330807
0.93779154
0.14192684
0.08402395
0.58410274
0.97337527
0.88063330
0.19296179
0.26460672
0.91904634
0.42160260
0.65532259
0.79690633
0.03616108
0.83009458
0.98557887
0.12216319
0.84843132
0.88979239
0.40996598
0.73256621
0.20591849
0.74166302
0.74918326
0.67929810
0.52097061
0.77568452
0.25920489
0.18193590
0.40982972
0.59434023
0.45524398
0.34762127
0.73626707
0.53926793
0.93172401
0.70964234
0.41990123
0.12468580
0.97424906
0.33894757
0.54628840
0.62957164
0.13585390
0.58244948
0.45966623
0.12143277
0.70461267
0.30809755
0.01122516
0.11457865
0.04066376
0.21714365
0.85624167
0.78984702
0.89644175
0.37721228
0.56553154
0.15564664
0.55914818
0.97536127
0.74998687
0.01439216
0.32298254
0.48625394
0.55366008
0.25470654
0.19589628
0.97356131
0.37939235
0.17014533
0.31250888
0.92568075
0.79971697
0.44836278
0.50813023
0.25938320
0.56979555
0.21274290
0.56748075
0.58102071
0.32732155
0.60814451
0.79816436
0.18356322
0.39799153
0.69460610
0.56077549
0.96352307
0.85025274
0.11992368
0.93888434
0.60023961
0.13431583
0.26186688
0.08649355
0.68797592
0.51657342
0.28238983
0.66153723
0.89596577
0.45253516
0.97404611
0.82164652
0.25225213
0.42240889
0.32977675
0.51163533
0.99220444
0.54251965
0.07911608
0.57322514
0.86984119
0.68726059
0.37138950
0.05340441
0.08525212
0.06599560
0.61417990
0.04877519
0.91624835
0.73410358
0.98765953
0.51648796
0.86841941
0.24952641
0.60298151
0.55639533
0.76609984
0.88537134
0.21793256
0.66206561
0.33790650
0.19197867
0.48371213
0.59015863
0.61438756
0.81348888
0.10179396
0.60659199
0.35600852
0.18091004
0.17981714
0.22584971
0.86817063
0.55120664
0.27925412
0.95342275
0.61720224
0.89343403
0.00219794
0.53345059
0.62753761
0.98985747
0.04993854
0.49595702
0.23938388
0.65292005
0.05235235
0.00548372
0.53829139
0.27028491
0.66754933
0.87619788
0.46226358
0.15126145
0.46635651
0.07665113
0.96475033
0.56815048
0.68324313
0.32075885
0.74906052
0.86306027
0.54660856
0.61723115
0.41426691
0.82586269
0.57065390
0.03146915
0.71929671
0.57285184
0.56491974
0.34683432
0.56270931
0.61485828
0.84279134
0.80209319
0.26777833
0.89514369
0.80757691
0.80606971
0.16542860
0.47512624
0.68226760
0.62769217
0.62638769
0.14862411
0.70434331
0.59113802
0.71677458
0.38758644
0.91189687
0.46583510
0.25064670
0.45850544
0.08306625
0.66491361
0.28436812
0.65372015
0.69638276
0.00366484
0.22657198
0.26130249
0.35049916
0.78928129
0.87616077
0.19329050
0.59137449
0.14393910
0.08843419
0.39895140
0.95000881
0.25386278
0.87407764
0.63227641
0.88155496
0.50046534
0.78090052
0.58589826
0.09160336
0.49767510
0.97348470
0.00350023
0.96351020
0.22413140
0.46200567
0.04657645
0.88904501
0.74637379
0.70029660
0.58542777
0.75003863
0.92686859
0.84673026
0.10053778
0.71614988
0.72289103
0.29382828
0.30752437
0.86683013
0.38226247
0.70647577
0.81683894
0.63612525
0.58055341
0.44911535
0.51768021
0.08101875
0.23001586
0.10357847
0.17262211
0.72769096
0.07706317
0.17612234
0.69120116
0.30119458
0.63812800
0.73777762
0.19023959
0.38450179
0.43807422
0.77566736
0.13454042
0.36494281
0.62239762
0.23507820
0.08109269
0.34528864
0.52890648
0.38861705
0.21211877
0.91116895
0.09509282
0.02895771
0.54729420
0.67564623
0.47807305
0.06497441
0.75666498
0.70808892
0.16855288
0.92928709
0.43577988
0.24561605
0.10540942
0.12698104
0.54681063
0.74353743
0.86475866
0.73705022
0.12803922
0.30283288
0.51271758
0.26257964
0.66777569
0.13511519
0.49765784
0.74886837
0.48040383
0.02656433
0.13748542
0.69252260
0.93773328
0.23257824
0.72148031
0.48502748
0.90822448
0.19955336
0.55000189
0.66488945
0.90764228
0.71855477
0.59417654
0.34342216
0.96417082
0.69958597
0.47040320
0.51098145
0.44312339
0.33516186
0.24803167
0.57116262
0.63799474
0.76074925
0.83374226
0.30577043
0.89586444
0.33140010
0.05463880
0.37626827
0.35796443
0.19212422
0.06879088
0.29569771
0.42470246
0.79027119
0.78072519
0.33292694
0.98982455
0.33072707
0.99781639
0.89746683
0.04928184
0.59199293
0.24088899
0.01345267
0.29157890
0.71129219
0.52443412
0.73470229
0.04645405
0.77246579
0.30586491
0.68444879
0.53321504
0.13960717
0.99021921
0.42907948
0.47100727
0.04485801
0.80534776
0.82897170
0.23698222
0.87413863
0.12466940
0.66168469
0.66440982
0.90539459
0.99461162
0.65423437
0.23612166
0.99242801
0.55170120
0.28540351
0.58442094
0.79259018
0.29885617
0.87599984
0.50388237
0.82329029
0.61070213
0.55033641
0.59575609
0.91656704
0.23478520
0.12897113
0.05617420
0.22500441
0.55805062
0.52718147
0.26986242
0.36339837
0.35615317
0.50684464
0.23753700
0.48082257
0.16852933
0.90194682
0.38621716
0.16314095
0.55618119
0.62233883
0.15556896
0.10788239
0.90774233
0.73998990
0.90047257
0.20659851
0.61598974
0.40435494
0.02988880
0.22669187
0.95469136
0.62564489
0.14325891
0.18947655
0.75461602
0.19943311
0.41448097
0.31266664
0.72661458
0.68434338
0.67606501
0.08276775
0.19118803
0.91360201
0.56359032
0.35971735
0.81554884
0.94980748
0.52285830
0.37173003
0.57214631
0.67842726
0.47961242
0.47988864
0.41841716
0.38008499
0.68648715
0.03440690
0.78443993
0.71637595
0.26109877
0.73913129
0.34202084
0.40435768
0.92860784
0.09663687
0.60379078
0.34308881
0.40930350
0.33040536
0.02743219
0.08536851
0.41317311
0.21862021
0.99897053
0.97676343
0.57833757
0.81451936
0.92657091
0.10119587
0.18624939
0.49871722
0.77962313
0.66586181
0.97860587
0.19804029
0.04594680
0.66509302
0.23244719
0.83038673
0.38146897
0.49354596
0.56951801
0.72348982
0.89790364
0.49812585
0.82012668
0.50169442
0.84121466
0.22943019
0.83209978
0.86864685
0.31479870
0.24527289
0.08726706
0.31376922
0.22203632
0.66560463
0.12828859
0.14860723
0.76680050
0.31453798
0.64732445
0.54642363
0.98039979
0.62593032
0.74446392
0.02634658
0.29102333
0.97691111
0.85673331
0.67249231
0.47045707
0.42625133
0.39598212
0.36836071
0.92437718
0.21610880
0.87005513
0.76559184
0.44553899
0.70215491
0.63423868
0.76033769
0.94742780
0.72150574
0.07410691
0.16946411
0.38711037
0.20239550
0.31807134
0.15391087
0.51693348
0.96539579
0.70033450
0.49733326
0.59132611
0.44479842
0.52367985
0.88234944
0.42170953
0.38041316
0.55484174
0.89216660
0.80666448
0.95082387
0.26052730
0.73104166
0.16693267
0.13058243
0.49663350
0.61247166
0.83273734
0.13087218
0.37280934
0.78016514
0.85237792
0.44691626
0.94962925
0.23948830
0.64931176
0.26770059
0.39339917
0.16624523
0.23309639
0.09373367
0.66357850
0.82442249
0.53853208
0.18725834
0.70677193
0.96024161
0.56767150
0.26161368
0.85240821
0.37433598
0.21243754
0.11293551
0.10537764
0.37937021
0.24351794
0.60201114
0.99184187
0.07625528
0.73288332
0.36465121
0.85642042
0.58526125
0.81156747
0.80604967
0.82474954
0.46087922
0.07375027
0.21814871
0.62712446
0.30684665
0.31188238
0.29070295
0.13126915
0.85041446
0.47796129
0.83804108
0.81065607
0.04563279
0.09965475
0.66306428
0.41996878
0.31209229
0.77599979
0.52534642
0.69146250
0.01951773
0.12735756
0.68330437
0.09577302
0.86024088
0.04795558
0.95219344
0.44550212
0.85952304
0.75824311
0.27025167
0.32040227
0.83199338
0.48840038
0.94752672
0.13884004
0.80028276
0.23822967
0.27010918
0.65069722
0.71619097
0.10815026
0.46135329
0.76182376
0.20780501
0.12441757
0.18179254
0.51989730
0.90041736
0.70713896
0.21135981
0.91993510
0.83449651
0.89466417
0.01570812
0.69473739
0.94261975
0.96790156
0.14023952
0.80214279
0.72614467
0.41049118
0.12254506
0.55813805
0.89889156
0.07007178
0.69697809
0.69917432
0.30830146
0.96708727
0.34987154
0.02449243
0.07523753
0.81122483
0.78631619
0.28304254
0.93564240
0.96810873
0.80293984
0.83605976
0.67524768
0.01429965
0.75599486
0.50974420
0.90896382
0.77170298
0.20448159
0.85158357
0.73960454
0.34472111
0.65372637
0.46574921
0.75521229
0.77627143
0.02388726
0.65410385
0.84634321
0.72086534
0.35327817
0.15464467
0.68795261
0.70314970
0.17913709
0.76319014
0.51437453
0.96545328
0.04623268
0.45001693
0.93356201
0.84917252
0.28607669
0.60880969
0.86347217
0.04207155
0.11855389
0.77243599
0.81377453
0.32303548
0.62401956
0.55337907
0.66775659
0.27774593
0.01912827
0.42296888
0.05401735
0.04301553
0.07707273
0.90036056
0.76388087
0.43035089
0.05500523
0.45183348
0.13350059
0.23414232
0.21502362
0.64787512
0.19959561
0.26125630
0.09789205
0.13315762
0.11042882
0.38396874
0.74196731
0.97390099
0.42604030
0.86052120
0.74633698
0.23981483
0.18355669
0.37035654
0.79319390
0.85131328
0.64810246
0.81232217
0.27428215
0.70211981
0.85533770
0.35135488
0.60248037
0.61921858
0.78170577
0.65748560
0.07105206
0.91520637
0.89162792
0.28607569
0.56308149
0.09122353
0.54733199
0.66097354
0.22438115
0.65776081
0.04494229
0.96634846
0.63166179
0.47098258
0.82686966
0.37799877
0.71079742
0.01042635
0.74835531
0.50399132
0.86173963
0.39645777
0.31631349
0.13602178
0.09857758
0.17165120
0.48737666
0.70105796
0.79086977
0.26908244
0.35854356
0.86192184
0.18428880
0.25017148
0.14799752
0.74737029
0.34139501
0.69532951
0.40834384
0.56577616
0.35309032
0.45328612
0.53212462
0.98475211
0.92426871
0.35899428
0.36275088
0.63506612
0.36942063
0.11110619
0.13905744
0.23116026
0.50756396
0.45537093
0.36718204
0.60614154
0.62702213
0.85455870
0.30719949
0.41789190
0.12364114
0.66574305
0.27981374
0.30792995
0.91591453
0.42781126
0.05530024
0.25730955
0.12314077
0.46364408
0.82308571
0.47623109
0.91693020
0.35521033
0.46098320
0.84119891
0.71420461
0.82373408
0.47626503
0.08362524
0.93484027
0.61532247
0.31478550
0.44240422
0.07069340
0.68196755
0.04854576
0.69771553
0.53652625
0.35574526
0.11560744
0.66016739
0.02148831
0.39542118
0.96809734
0.93740284
0.82323244
0.02339758
0.19471239
0.94637321
0.48704166
0.01779810
0.42260430
0.40397185
0.37300842
0.88358751
0.24517076
0.08721303
0.70732159
0.72143579
0.17083827
0.64216186
0.33675826
0.48562378
0.08456608
0.40745166
0.16759132
0.13311184
0.10516719
0.70411758
0.48885710
0.22077463
0.36428497
0.51034541
0.61619580
0.33238231
0.44774825
0.43942824
0.35577989
0.64246064
0.38580146
0.84282154
0.66025874
0.80840576
0.24679340
0.03326716
0.69199327
0.49196415
0.12048019
0.39931486
0.21339994
0.29131846
0.04147671
0.55015820
0.77694224
0.12604279
0.95760986
0.94453356
0.25915463
0.06277705
0.64865114
0.74801173
0.28355168
0.01293611
0.25835714
0.89974749
0.34531841
0.70610539
0.33917573
0.70109830
0.34856603
0.72497719
0.54391984
0.00882476
0.53338295
0.79071323
0.04209192
0.22537622
0.28267739
0.16257211
0.62469108
0.49607733
0.45389056
0.66616779
0.04623553
0.23083280
0.79221058
0.00384539
0.17536636
0.05136521
0.06662245
0.82401750
0.79937694
0.35017413
0.83695361
0.05773407
0.24992161
0.18227202
0.76383946
0.58909734
0.88337031
0.11240549
0.31407453
0.42729015
0.12123025
0.84745748
0.21800338
0.16332217
0.07283370
0.50068077
0.32589427
0.69752477
0.99675810
0.77978484
0.36369256
0.04299363
0.01061764
0.15590313
0.04683902
0.18598400
0.20726834
0.11346147
0.01000150
0.00664528
0.46363560
0.84695511
0.06437935
0.71355721
0.02922712
0.82821881
0.30265455
0.91259744
0.94062429
0.61672908
0.33988759
0.06185454
0.46418656
0.55789097
0.22517671
0.53702025
0.05857174
0.55107098
0.23454503
0.05532984
0.33085581
0.59823759
0.09832347
0.34147345
0.75414072
0.14516249
0.52745745
0.96140906
0.25862396
0.53745895
0.96805434
0.72225956
0.38441406
0.03243368
0.43581677
0.41364118
0.86065249
0.73847131
0.32623862
0.80127678
0.35520039
0.66612621
0.86313132
0.81938695
0.22401718
0.08830802
0.35640720
0.28258892
0.63937900
0.59095223
0.33791876
0.97023481
0.18918982
0.43624224
0.31170826
0.94333054
0.58140473
0.83916572
0.90473960
0.84002870
0.37662467
0.87279393
0.56228825
0.76103873
0.90522762
0.99810502
0.17467991
0.76588010
0.73657633
0.50091853
0.56715688
0.09177673
0.16704474
0.43028820
0.91116367
0.39106192
0.51859623
0.26757088
0.67365084
0.15797523
0.85852311
0.01156961
0.12821004
0.04771292
0.44781184
0.43991830
0.99104346
0.02921658
0.27908402
0.89578305
0.86924527
0.65570869
0.76857698
0.43153352
0.41674742
0.67380460
0.42963854
0.59142733
0.43968470
0.16621488
0.09234587
0.00684159
0.25799160
0.25939061
0.43712979
0.16915528
0.65045253
0.95572602
0.43672615
0.32410337
0.11370125
0.29524926
0.33567298
0.24191129
0.34296218
0.78348482
0.68182959
0.33400564
0.81270140
0.96091361
0.22978869
0.68194667
0.61662230
0.99836567
0.11348019
0.03336972
0.67217027
0.54311873
0.62479706
0.11185498
0.70933361
0.71714292
0.11869657
0.96732521
0.97653353
0.55582636
0.13648049
0.62698606
0.51155238
0.57320664
0.95108943
0.62525362
0.86845590
0.28676240
0.86716491
0.21141808
0.07024723
0.54899450
0.54542371
0.88294862
0.50990811
0.77521240
0.56489529
0.12653041
0.77357808
0.67837548
0.15990014
0.44574835
0.22149422
0.78469720
0.55760333
0.93082783
0.50184012
0.67629989
0.89815304
0.47837365
0.23212625
0.03463352
0.10535971
0.74367863
0.60784016
0.05644913
0.36893225
0.47629606
0.34321154
0.23609716
0.68771414
0.41345876
0.78509166
0.23313785
0.29640738
0.29499977
0.00835025
0.86130267
0.42153018
0.78192833
0.53967815
0.58143032
0.22767668
0.76117237
0.36612752
0.78528000
0.69200020
0.86796763
0.46157989
0.59015323
0.34634128
0.69370614
0.62478676
0.45170099
0.43738477
0.23262692
0.50815012
0.80631702
0.70892298
0.85136166
0.04241417
0.39663711
0.26482042
0.82750583
0.62977497
0.56122780
0.12250560
0.63812522
0.42253048
0.54403578
0.42005355
0.96220863
0.12546610
0.64773022
0.72338100
0.49159361
0.43301022
0.41538120
0.35956125
0.89459012
0.00553443
0.70590253
0.58829626
0.63032118
0.15760352
0.02568103
0.86294810
0.66575364
0.83199804
0.57187108
0.51711530
0.87441222
0.96850819
0.78193572
0.70191805
0.59828316
0.34316352
0.82442365
0.23640838
0.76569400
0.36845943
0.65646192
0.72790263
0.49392553
0.30419214
0.45128363
0.98551914
0.73720237
0.86666483
0.34508039
0.63179248
0.87219925
0.05098292
0.22008874
0.50252044
0.20858644
0.24576976
0.36546854
0.87434007
0.07776781
0.93733962
0.39145537
0.95218003
0.90584781
0.17339109
0.65409808
0.50413097
0.51655461
0.47852173
0.74053935
0.28224860
0.84698116
0.39700127
0.01015123
0.34090668
0.70119341
0.46143486
0.32642582
0.43839578
0.32809969
0.67150621
0.07018826
0.20029894
0.72248913
0.29027700
0.70281938
0.93107556
0.53604676
0.06828791
0.80541564
0.61381457
0.00562753
0.19687101
0.56599460
0.91147534
0.37026209
0.22009268
0.41560631
0.88681670
0.69861441
0.15614565
0.16906530
0.54559556
0.55314692
0.17921654
0.88650224
0.25434033
0.64065140
0.21292806
0.69273611
0.96875109
0.88443427
0.76292437
0.16905003
0.60692340
0.05320137
0.87186941
0.53799896
0.58924813
0.94015732
0.34341460
0.20306270
0.94578485
0.54028560
0.76905731
0.85726019
0.91054769
0.98914999
0.27286650
0.79736439
0.68776440
0.42901215
0.96642970
0.23335996
0.98215908
0.14564623
0.11986220
0.23649941
0.78629763
0.33279027
0.92923552
0.75504872
0.21722454
0.69215989
0.92409875
0.82414794
0.74536126
0.79596816
0.36214690
0.33460939
0.73612548
0.70556150
0.53767210
0.68191033
0.24584710
0.30672940
0.53917052
0.15639479
0.29587939
0.81203702
0.95375918
0.98364378
0.24104917
0.92018888
0.21700374
0.22320825
0.06583511
0.33686594
0.45970766
0.85213275
0.66965621
0.38894318
0.60718147
0.88688075
0.08110307
0.53128022
0.71102869
0.82646433
0.32724838
0.07317559
0.16107372
0.06337386
0.77873709
0.69874581
0.74528419
0.02458418
0.00547522
0.28445471
0.18097898
0.30135461
0.09649172
0.13473816
0.28499839
0.33754090
0.05492704
0.50200213
0.56074915
0.12076215
0.83886807
0.02045680
0.97289490
0.50852428
0.40939998
0.58007637
0.39540503
0.49050305
0.11135659
0.10643372
0.31696738
0.43860497
0.17960931
0.47804109
0.50197882
0.95834640
0.17678691
0.24726301
0.98293058
0.18226213
0.53171772
0.16390956
0.48361673
0.62820944
0.29864772
0.76861512
0.96575034
0.35357475
0.27061725
0.52649948
0.47433690
0.10948533
0.54695629
0.44723180
0.61800961
0.95635627
0.02730817
0.01341465
0.44685932
0.13866475
0.11984837
0.76382669
0.57726972
0.29945768
0.24186779
0.07924854
0.25780408
0.41865470
0.32651155
0.24073466
0.60091682
0.85822927
0.40464422
0.08453355
0.48643871
0.70329194
0.85314867
0.45218905
0.05686669
0.12376593
0.97868853
0.53120360
0.23325125
0.52564482
0.97843540
0.85126086
0.48200109
0.00574356
0.86467551
0.92886040
0.14440831
0.98452388
0.69268709
0.72167803
0.28398156
0.93455488
0.80092657
0.54178564
0.35320957
0.12743813
0.78252031
0.95412640
0.98566739
0.18716453
0.03865995
0.47210611
0.89045647
0.89180862
0.92429515
0.94732316
0.01557455
0.90298369
0.47852676
0.24882580
0.42862851
0.45696215
0.10008667
0.91062959
0.46270572
0.96476218
0.83949000
0.60711403
0.94928606
0.53217709
0.32879206
0.23326762
0.46673197
0.12971864
0.77505326
0.81994154
0.25715676
0.55757357
0.77406794
0.24282416
0.74473810
0.81272789
0.71493026
0.63519457
0.70453651
0.63922542
0.58251773
0.72011106
0.54220910
0.06104448
0.96893687
0.97083761
0.51800664
0.06902354
0.88146721
0.98071236
0.03378572
0.72095720
0.58782639
0.98307177
0.25313429
0.91661845
0.21633939
0.71986626
0.04633709
0.99139266
0.53980781
0.30349385
0.54896623
0.31387574
0.54631801
0.29370433
0.12660363
0.26124827
0.92889889
0.83114015
0.90047369
0.51141662
0.55125121
0.44268279
0.57246110
0.52018808
0.41352040
0.09046774
0.58921162
0.29498761
0.07118009
0.62299734
0.01594481
0.65900648
0.60606911
0.26907910
0.57562493
0.82240851
0.98894536
0.62196202
0.81380116
0.52875317
0.92545587
0.36276739
0.84262891
0.47177388
0.65647172
0.96923255
0.73302215
0.58537061
0.80037270
0.63349584
0.09678723
0.35162391
0.07617863
0.66924832
0.87181199
0.48969903
0.75971606
0.46102361
0.78468664
0.83089615
0.08402095
0.80063145
0.48990263
0.69009006
0.06971055
0.06552756
0.51249856
0.05865592
0.68748959
0.32629972
0.58740909
0.61294546
0.68906712
0.43003800
0.08471934
0.34553883
0.39927055
0.81774149
0.93090944
0.19964325
0.45123733
0.02769667
0.55126716
0.52741596
0.69694499
0.42307915
0.01711499
0.45666105
0.88410276
0.80180163
0.28755720
0.96812371
0.60243307
0.77745984
0.65821377
0.67214363
0.84298740
0.17071233
0.73079954
0.53047698
0.49701205
0.31820863
0.14342244
0.18607917
0.74824663
0.22814178
0.53161800
0.14751718
0.04588327
0.46252744
0.34716043
0.49712060
0.49022411
0.89842759
0.02453655
0.18716910
0.32150674
0.04165154
0.64383015
0.20560950
0.84345317
0.93138735
0.17373321
0.44588624
0.70884719
0.83194698
0.11802987
0.55183458
0.00265930
0.84882941
0.08231157
0.49967136
0.16703804
0.22573401
0.68575053
0.91528467
0.45387579
0.21736853
0.06280186
0.49975906
0.67989597
0.40996229
0.99687966
0.17012008
0.30838987
0.02141621
0.35728917
0.62989661
0.06306776
0.00111932
0.83550611
0.90652092
0.93250667
0.00923932
0.35240717
0.64135386
0.84118629
0.47043703
0.19318844
0.84384560
0.31926645
0.27550001
0.34351695
0.48630449
0.50123402
0.02926748
0.40158916
0.95510981
0.24663601
0.46439102
0.45486887
0.92653198
0.87435330
0.45174853
0.09665205
0.18274318
0.47316475
0.45394122
0.81263979
0.53623251
0.45506054
0.64814590
0.44275343
0.38756721
0.65738522
0.79516059
0.02892107
0.49857151
0.26559763
0.22210951
0.34241711
0.58486407
0.49760952
0.68593406
0.07116856
0.99884354
0.71520154
0.47275772
0.95395336
0.96183755
0.93714874
0.40882223
0.88836953
0.81150204
0.86057076
0.98502158
0.99424522
0.33373551
0.43896280
0.80688501
0.86996802
0.89402334
0.45503091
0.31272145
0.28159056
0.11241612
0.10788204
0.31051163
0.61098763
0.37347967
0.53262114
0.95340474
0.95834374
0.03023066
0.63933880
0.02951230
0.02907420
0.35454034
0.50227002
0.98302756
0.31637789
0.43941875
0.39184979
0.20474742
0.25092080
0.25242055
0.18976900
0.24516602
0.58615606
0.62873180
0.05205102
0.45612408
0.52275514
0.50708193
0.76884552
0.80434570
0.61949805
0.87672756
0.11485732
0.23048569
0.25020723
0.64747846
0.18389043
0.20855097
0.67770912
0.82322923
0.23806326
0.70678332
0.17776957
0.74033328
0.68981088
0.49414747
0.17975203
0.08166067
0.69889489
0.43067283
0.33408122
0.88866388
0.67583885
0.92023728
0.51739568
0.72788987
0.37636135
0.04015082
0.23497180
0.14520688
0.84449651
0.85446985
0.02193444
0.95935384
0.08495554
0.27214167
0.60683230
0.26884597
0.48069264
0.28454142
0.09207519
0.71875590
0.99132474
0.26984477
0.45908918
0.68113562
0.76399224
0.63884121
0.76279629
0.46288712
0.06951404
0.09687751
0.35155101
0.74535289
0.01711478
0.86894669
0.47324276
0.39347614
0.90909751
0.70821456
0.53868301
0.75359402
0.56268441
0.56061746
0.71294786
0.64763995
0.83275913
0.31978015
0.91648591
0.31345176
0.60432157
0.00856111
0.03220766
0.59564632
0.27840587
0.49129683
0.27678194
0.04239811
0.13013804
0.03957823
0.50528524
0.19965208
0.13645574
0.85683624
0.94500497
0.15357052
0.72578293
0.41824773
0.54704665
0.63488044
0.12646228
0.08572967
0.38847445
0.68914669
0.64634712
0.10142231
0.33678663
0.47910625
0.42120247
0.25327255
0.79255801
0.02552404
0.26183365
0.82476567
0.62117036
0.54023953
0.31606250
0.89795230
0.58263764
0.44620055
0.93753053
0.08792287
0.64585263
0.07398626
0.94475912
0.59085760
0.22755678
0.67054205
0.00910533
0.77460343
0.30542248
0.13556761
0.86033310
0.69389694
0.82471430
0.50668023
0.79531925
0.16150093
0.98578647
0.21652171
0.41477348
0.77834448
0.24204575
0.67660713
0.60311015
0.86321611
0.21684665
0.91917265
0.76116841
0.79948429
0.36537320
0.69869893
0.88740716
0.01122583
0.77268520
0.83216628
0.60208343
0.00024198
0.50270832
0.61118876
0.77484541
0.80813080
0.74675637
0.63517851
0.50202774
0.57147066
0.14185874
0.29734699
0.73297160
0.12764521
0.51386870
0.14774507
0.90598969
0.75591445
0.82435220
0.50909984
0.61913056
0.04119886
0.42827250
0.38029896
0.84068315
0.79364570
0.07899790
0.72809031
0.80487153
0.85168309
0.56025659
0.40695496
0.85192507
0.06296491
0.01814371
0.62677048
0.87109572
0.76490008
0.26194899
0.37312346
0.33637074
0.40380773
0.67047044
0.06934234
0.53145294
0.18433914
0.21708741
0.43744264
0.94025359
0.04143962
0.94654248
0.55938415
0.08263848
0.37481498
0.93968311
0.92332163
0.16846067
0.01868101
0.65141194
0.97333220
0.87036410
0.21166853
0.38028715
0.72228917
0.27463344
0.39843086
0.34905965
0.14572916
0.16333094
0.61100865
0.51885262
0.49970168
0.01481638
0.18932306
0.56904402
0.54626932
0.37366220
0.78613144
0.98371195
0.31391579
0.82757105
0.93025443
0.87329994
0.91020953
0.30506941
0.81298305
0.83353115
0.47353008
0.83166405
0.48494309
0.44686228
0.70202815
0.69661162
0.82714943
0.42431732
0.97124506
0.22558029
0.77337698
0.11697422
0.38891123
0.38438562
0.63582684
0.88861292
0.39920200
0.82514990
0.45765694
0.94547132
0.19881210
0.24378838
0.92918327
0.51272789
0.07135943
0.85943770
0.38602783
0.98156896
0.16450711
0.19901088
0.81510012
0.63803719
0.03067493
0.30004321
0.08489946
0.73270308
0.99665482
0.91204889
0.15702041
0.96789988
0.13762918
0.93039739
0.08487410
0.52654042
0.31478301
0.72070094
0.41515334
0.71398501
0.54585084
0.87281028
0.65945632
0.74466294
0.11659865
0.58863959
0.25739083
0.18795809
0.44807729
0.64341866
0.16952705
0.61258440
0.84242954
0.98462716
0.25062159
0.87310447
0.28467037
0.33552105
0.60580755
0.28132519
0.24756995
0.76282796
0.24922507
0.38519913
0.69322535
0.33409918
0.91173955
0.00800836
0.05480012
0.32689288
0.72199336
0.60065096
0.19970316
0.38144968
0.34531390
0.31630182
0.97008927
0.60270473
0.50425990
0.41816656
0.24612339
0.67378695
0.03075096
0.08855293
0.65841411
0.28137255
0.96165741
0.94308448
0.61689361
0.56746496
0.22440967
0.86446355
0.33029292
0.47363474
0.24966268
0.02351827
0.80773392
0.16140223
0.03152663
0.86253404
0.48829512
0.75351999
0.46318500
0.68799828
0.13496967
0.80849890
0.00430009
0.10505895
0.41120363
0.50856000
0.52322551
0.65732702
0.18234694
0.55397647
0.74587996
0.84076106
0.83534903
0.70753736
0.78384553
0.45224263
0.27500232
0.00825520
0.31670619
0.60529524
0.48188995
0.56636887
0.62881352
0.28962387
0.72777110
0.66034014
0.15215791
0.21606622
0.41386013
0.61534290
0.90406449
0.54882980
0.42384180
0.90836459
0.65388875
0.83504543
0.41692458
0.17711426
0.49237245
0.59927152
0.73109073
0.23825240
0.44003258
0.56643976
0.94578976
0.22387811
0.01868240
0.22079208
0.23213332
0.33538858
0.82608732
0.71402326
0.90175745
0.45490084
0.00364713
0.62952855
0.11524098
0.15580504
0.84559477
0.52910111
0.77114794
0.74965926
0.07793092
0.19498974
0.65802384
0.73181967
0.03003517
0.07494842
0.90893393
0.52240761
0.67421995
0.64002466
0.76066001
0.11425253
0.20646442
0.70644977
0.33813064
0.22514682
0.92724186
0.57026396
0.56053540
0.75332918
0.28428722
0.46229285
0.20823002
0.28793435
0.09182141
0.32347100
0.44373939
0.93741617
0.85257212
0.21488733
0.68707543
0.93050303
0.40987707
0.34509928
0.66232270
0.43991224
0.42004770
0.57125663
0.96231985
0.09426765
0.21128129
0.72297986
0.20852018
0.41774572
0.42942963
0.54665082
0.64289254
0.35667149
0.11691478
0.20342794
0.11000067
0.40120200
0.66572080
0.31823069
0.68913635
0.75754220
0.64170169
0.13287573
0.69495837
0.49427380
0.34776306
0.38203381
0.42477684
0.75764013
0.72713308
0.08709954
0.19755236
0.14718078
0.65835617
0.15987221
0.24144844
0.86963747
0.88285207
0.44996862
0.28738318
0.31228171
0.99661944
0.93027572
0.66895320
0.11353422
0.13370367
0.77895387
0.51473621
0.79942446
0.09718455
0.20387256
0.55696666
0.73888624
0.33674829
0.25192504
0.23316005
0.68451135
0.63395884
0.65793689
0.44215148
0.36109192
0.74503643
0.63970384
0.50827271
0.40339260
0.79957605
0.74972115
0.27303006
0.68242812
0.19968976
0.56041325
0.99470983
0.19630920
0.49068897
0.66366302
0.30984341
0.62439264
0.44261689
0.82457963
0.42381710
0.53980144
0.02845218
0.98078376
0.27868769
0.36520047
0.23270880
0.51184773
0.04971182
0.86666764
0.16978462
0.49186330
0.22775957
0.91482105
0.13156714
0.73603227
0.31821365
0.93114319
0.48575342
0.59124371
0.61357131
0.68544318
0.15165696
0.60828114
0.88175238
0.64234593
0.27194416
0.19159579
0.26673857
0.71456105
0.01617542
0.69055567
0.25436249
0.04462760
0.67133943
0.53305018
0.40982807
0.90404823
0.04489791
0.45953989
0.77071587
0.21468253
0.95140319
0.99847543
0.12950358
0.08297033
0.73450771
0.44771723
0.01411351
0.22026113
0.03896094
0.62768482
0.90570431
0.19061790
0.23596596
0.78745669
0.83296383
0.50791012
0.97905248
0.09970240
0.22247117
0.99522790
0.79025807
0.47683367
0.03985550
0.46159750
0.00988384
0.44968357
0.36564572
0.05478176
0.90922347
0.13636159
0.26946429
0.86062666
0.13483703
0.39896788
0.94359699
0.86934473
0.84668511
0.95771050
0.08960586
0.88564605
0.58539532
0.99531017
0.07626395
0.82136128
0.78276686
0.90922778
0.32927141
0.76181934
0.00893017
0.55174258
0.75704723
0.79918824
0.02857624
0.79690273
0.26078574
0.03846009
0.24658631
0.62643146
0.09324185
0.15580977
0.76279305
0.36270614
0.01643643
0.89763008
0.76167402
0.96003342
0.76697481
0.60835912
0.91774392
0.85658067
0.49400517
0.50313924
0.85189084
0.57026911
0.32450052
0.63465770
0.47949689
0.65377193
0.39647703
0.48842706
0.20551451
0.15352426
0.28761530
0.23409075
0.95042700
0.54840104
0.27255084
0.19701330
0.17483250
0.36579269
0.35282307
0.93762555
0.72849882
0.36925951
0.83525562
0.49017284
0.32929292
0.60223043
0.09853196
0.24703684
0.45881111
0.59253713
0.75017608
0.31070195
0.16280624
0.07467661
0.94535964
0.64230313
0.72844854
0.34183668
0.13073019
0.93396305
0.49536094
0.41834549
0.16805380
0.44578794
0.96674653
0.44060464
0.64280124
0.14157903
0.80639732
0.99562431
0.07920457
0.53489615
0.36488382
0.91446020
0.02506899
0.69417674
0.51669063
0.12360095
0.94121358
0.97550174
0.71613807
0.69138967
0.28620368
0.87894431
0.76606627
0.23156333
0.52124744
0.49451481
0.57340001
0.65197763
0.42847786
0.06876095
0.07032313
0.59653165
0.51454888
0.03706966
0.03713629
0.15735012
0.17864868
0.84353361
0.15297443
0.25785326
0.37842976
0.51785825
0.17231345
0.40349874
0.21203499
0.68900409
0.52709969
0.15324857
0.66450582
0.24323776
0.84463823
0.95070951
0.12218208
0.61070451
0.18227284
0.64342952
0.10521932
0.75567284
0.29540715
0.53369717
0.82443379
0.36573028
0.13022882
0.33898267
0.40279994
0.16736512
0.49633279
0.58144862
0.01089873
0.64930722
0.83930188
0.38932849
0.16716546
0.01161533
0.79282723
0.37920045
0.70061942
0.31992692
0.53244902
0.36512524
0.56316468
0.37708725
0.31583475
0.68534676
0.98779176
0.49810759
0.32877627
0.09301107
0.25378043
0.62418343
0.62670825
0.07821422
0.98991371
0.75693707
0.41719689
0.39271364
0.92430219
0.91352968
0.97416226
0.93520091
0.56283690
0.81346414
0.32452940
0.73000236
0.82507947
0.11735663
0.10920281
0.52569888
0.43728354
0.64165183
0.89082412
0.00044822
0.01873908
0.20665887
0.68579498
0.00653084
0.70476646
0.01457125
0.09954191
0.95854690
0.63875468
0.72625016
0.03676112
0.62866838
0.48318723
0.45395801
0.02138202
0.40748941
0.36748769
0.99554428
0.34269032
0.93032459
0.80900842
0.66721972
0.66032695
0.63408788
0.78457635
0.76952976
0.15978676
0.22185989
0.41118159
0.05061089
0.22230811
0.42992067
0.25726976
0.90810309
0.43645150
0.96203623
0.92267434
0.53599341
0.92058312
0.56142901
0.26224357
0.95734424
0.19009739
0.74543079
0.41130226
0.21147941
0.15292020
0.77878995
0.20702369
0.49561053
0.70911454
0.01603211
0.16283025
0.36944149
0.65011999
0.94740659
0.13897125
0.80990676
0.16926648
0.55015284
0.86051764
0.39157459
0.98007350
0.11778740
0.29967768
0.41652501
0.07982363
0.22235202
0.95251842
0.00040675
0.78378103
0.21476198
0.95775100
0.97387842
0.96019277
0.36905325
0.18535783
0.11311298
0.14784320
0.39238153
0.60872350
0.85695774
0.40841364
0.77155375
0.22639924
0.05853363
0.71896034
0.36537049
0.86844039
0.88822683
0.91552333
0.72895803
0.27980142
0.89559683
0.84674543
0.57947910
0.31212184
0.92656906
0.80183112
0.26464025
0.92697581
0.58561215
0.47940224
0.88472681
0.55949057
0.43959501
0.25378006
0.74484840
0.55270798
0.40162327
0.13722993
0.16143149
0.25858101
0.54564357
0.93298524
0.48498025
0.60417720
0.65194558
0.85035073
0.47261759
0.54017241
0.76587406
0.20157561
0.81997383
0.66147089
0.04832104
0.39945293
0.97359273
0.97489010
0.20128405
0.23823298
0.90186591
0.78689620
0.71763521
0.78659272
0.34638677
0.15723022
0.04037279
0.09123517
0.70993821
0.44199605
0.22846510
0.87136969
0.70057706
0.77410867
0.80435493
0.18555731
0.37828587
0.45630051
0.03590804
0.85090346
0.99647292
0.80178210
0.05247907
0.81644674
0.46325299
0.10080011
0.21589967
0.43684572
0.07569021
0.41718372
0.67507870
0.97755613
0.20407992
0.39271391
0.76414885
0.55046669
0.54994413
0.80452164
0.64170186
0.25988234
0.24651769
0.87016696
0.13125203
0.94709475
0.64427564
0.93560696
0.13265206
0.02256151
0.39190747
0.16856011
0.87346497
0.38838038
0.97034221
0.92594404
0.20482712
0.43359520
0.02674415
0.42072680
0.87044092
0.10243437
0.83791052
0.54551962
0.07999050
0.04199045
0.93823352
0.84413935
0.59245714
0.48817766
0.64866099
0.23415900
0.74805999
0.89517868
0.10432596
0.87931202
0.84227343
0.74860160
0.81491898
0.97492549
0.77116311
0.20682644
0.14348560
0.64462807
0.59520682
0.11382781
0.57057211
0.80003395
0.54742301
0.59731627
0.22076075
0.41786393
0.69975064
0.05867127
0.96338355
0.77974113
0.10066171
0.90161707
0.62388048
0.69311885
0.38979473
0.27254147
0.92727785
0.13785472
0.16772014
0.03160380
0.01716673
0.00999357
0.78020540
0.83208571
0.98491906
0.55136851
0.03891215
0.12840466
0.19599658
0.63411897
0.24223247
0.76656870
0.43415292
0.78965548
0.36388496
0.65491367
0.20751941
0.06363560
0.71358493
0.17090296
0.84337673
0.81424665
0.07252003
0.46725721
0.50736550
0.46231475
0.73979868
0.43464334
0.60016947
0.90751882
0.46624715
0.61733621
0.91751239
0.24645255
0.44942192
0.90243146
0.79782106
0.48833407
0.03083612
0.99381764
0.12245304
0.27306859
0.76038633
0.55660596
0.06272407
0.12427130
0.21151963
0.27024348
0.18790690
0.92510456
0.44114644
0.03128363
0.73935121
0.51366647
0.49854084
0.24671671
0.97598122
0.23833952
0.68136005
0.57615069
0.14585834
0.14760719
0.19348690
0.06337073
0.39405974
0.64290881
0.96580218
0.19188080
0.13124288
0.99663830
0.18569843
0.25369592
0.26970689
0.94608477
0.81030188
0.33243096
0.07035607
0.02182151
0.60267445
0.25826296
0.94692607
0.04382089
0.28954659
0.68627728
0.55748736
0.78808743
0.93299399
0.53346858
0.02642695
0.61435404
0.10961928
0.17228528
0.76196123
0.30310618
0.23565601
0.15602097
0.94601499
0.20145819
0.34790177
0.07725787
0.19809649
0.53360021
0.33095380
0.46780338
0.47968497
0.14125568
0.80023435
0.55004104
0.16307719
0.40290879
0.80830400
0.11000327
0.44672968
0.09785059
0.79628055
0.00421704
0.88593802
0.72927454
0.53768563
0.91236497
0.34362857
0.64730490
0.08465025
0.10558980
0.95041108
0.32030626
0.26161078
0.89642607
0.52176446
0.60951255
0.97368394
0.71986095
0.14311275
0.30463774
0.18766433
0.62279773
0.44589342
0.98789868
0.17283877
0.60897061
0.39080747
0.98114277
0.71897388
0.83753715
0.07899336
0.51525443
0.84175419
0.96493138
0.24452896
0.37943982
0.87729635
0.58815754
0.02674472
0.96194661
0.69374734
0.97715581
0.28225287
0.95535812
0.87358188
0.80401733
0.56487067
0.84726582
0.52387828
0.70798342
0.15190356
0.71154261
0.33078115
0.59779697
0.69944128
0.50361991
0.20676758
0.09024875
0.48476268
0.92574146
0.92778590
0.56375604
0.44099589
0.76954010
0.52868742
0.68552485
0.14897992
0.40598377
0.27368238
0.17572464
0.36793038
0.96742972
0.15288045
0.65018325
0.92278784
0.02646232
0.45420058
0.48765851
0.87372814
0.97807885
0.19564192
0.02563170
0.68962146
0.52642307
0.62342867
0.38906274
0.03004298
0.83019626
0.47931149
0.51480566
0.75593772
0.40709740
0.07856170
0.19693360
0.17663749
0.60724912
0.88245845
0.32561741
0.01323289
0.15614084
0.50134205
0.38116327
0.12357056
0.65422250
0.03134653
0.04635840
0.68068483
0.48554710
0.53401690
0.55441297
0.46362596
0.72965883
0.58004467
0.15324742
0.25608190
0.20347334
0.54231016
0.28612488
0.03366960
0.02162165
0.80093054
0.78960732
0.42871905
0.87949224
0.98654092
0.60535654
0.48674135
0.86899937
0.93097396
0.49997425
0.02514021
0.43231601
0.88113752
0.14871077
0.08653851
0.91248405
0.19506917
0.76722334
0.39803115
0.72908607
0.32163630
0.86165711
0.45874490
0.90168097
0.01490453
0.71482680
0.10515431
0.55721469
0.00095168
0.13882391
0.57883634
0.80188221
0.92843123
0.00755539
0.68137445
0.91497215
0.61291194
0.16811580
0.78397152
0.54388589
0.66809005
0.80911173
0.97620190
0.54922757
0.95782250
0.06274041
0.46171162
0.15289167
0.82996375
0.85974277
0.88197775
0.15160006
0.72139988
0.34072265
0.05328103
0.73630441
0.05554945
0.15843534
0.29351910
0.05650112
0.29725925
0.87235545
0.85838334
0.22569047
0.87991084
0.53975779
0.14066262
0.49282278
0.70787359
0.92463414
0.03670867
0.37596364
0.73374588
0.01291057
0.92519122
0.69156838
0.07565099
0.38690284
0.84446005
0.90561474
0.24664561
0.72643780
0.05721479
0.96804550
0.06716044
0.11049582
0.70434991
0.12270989
0.26893116
0.99786901
0.17921101
0.56619040
0.87022446
0.03759435
0.79188087
0.75013530
0.57735214
0.93254349
0.24295808
0.28522573
0.85717764
0.27966675
0.66118937
0.59092351
0.29257732
0.58638059
0.28249189
0.36822831
0.97328343
0.12695194
0.27384305
0.21992904
0.85338974
0.33105784
0.18797454
0.92055018
0.44155366
0.89232445
0.04326007
0.71048482
0.89019346
0.22247108
0.27667522
0.76041792
0.26006543
0.06855609
0.51055322
0.83741757
0.00109959
0.75351130
0.12264330
0.85827722
0.03317805
0.78383267
0.44920074
0.32575537
0.37021326
0.73169263
0.69398368
0.34349669
0.85864457
0.96782673
0.56342573
0.71203431
0.29888457
0.75140026
0.63258449
0.74043823
0.64372471
0.67584456
0.45092305
0.53391817
0.89831564
0.72759827
0.29433608
0.15838108
0.79615436
0.80488931
0.99579865
0.79725395
0.55840061
0.11844194
0.65553117
0.59157866
0.90227461
0.10473190
0.91733403
0.27248787
0.83642453
0.61131771
0.61598456
0.69506910
0.57914445
0.17941028
0.40710341
0.87802902
0.93081054
0.03968789
0.61846725
0.57453525
0.71553245
0.06939030
0.10845342
0.61384809
0.79698857
0.40278950
0.77222917
0.59314293
0.20767881
0.76802782
0.39039688
0.76607941
0.88646976
0.04592805
0.35765807
0.78874438
0.15065995
0.27499210
0.06123225
0.98708449
0.88630982
0.67721681
0.68215359
0.46545426
0.85662709
0.08925699
0.34348328
0.78743763
0.12894489
0.96195053
0.36197288
0.84447734
0.03134084
0.47042630
0.45832543
0.82832941
0.87321580
0.23055460
0.42147234
0.08089461
0.99858242
0.81186922
0.84697402
0.88505218
0.85779727
0.20463209
0.67379656
0.00845722
0.47962419
0.73502881
0.99554171
0.36593401
0.41224562
0.67769529
0.83138828
0.26887271
0.76695229
0.17487156
0.05631034
0.89589717
0.13682209
0.41828322
0.74037451
0.16816293
0.88870952
0.19869994
0.99649234
0.76192532
0.42925455
0.41796468
0.84281993
0.42783697
0.22983390
0.68979395
0.31288915
0.08763117
0.89442604
0.98668571
0.09608839
0.37405024
0.72171452
0.09163010
0.73998425
0.13396014
0.76932540
0.57137252
0.40283285
0.53627768
0.74624408
0.45914319
0.43217486
0.88306617
0.87742641
0.17254937
0.05122910
0.76613593
0.37124931
0.04772144
0.52806126
0.80050386
0.46568612
0.37088119
0.22834082
0.69552002
0.06067514
0.54122997
0.78315119
0.95510118
0.52791568
0.87923958
0.32915142
0.24963020
0.97086969
0.06913567
0.38359034
0.74019508
0.64050819
0.78642319
0.27647277
0.38675228
0.24556637
0.70864762
0.26981845
0.12299278
0.88119699
0.32104755
0.88912872
0.25244630
0.36876899
0.41718998
0.05295016
0.83445511
0.78807117
0.28129098
0.52997513
0.84874631
0.82252095
0.31312632
0.80384749
0.35043664
0.19236590
0.13299891
0.60006684
0.16323558
0.20213458
0.98365718
0.90343067
0.84264277
0.77008037
0.17990343
0.22939505
0.01564674
0.88855105
0.49921350
0.13863953
0.76974804
0.82026105
0.02776825
0.02219434
0.18903004
0.44495823
0.07514450
0.02348515
0.23302939
0.35643548
0.55346028
0.08177570
0.17895643
0.86658659
0.88562319
0.52939307
0.05895249
0.01862209
0.12945991
0.22218808
0.22075667
0.11311709
0.12561874
0.06339944
0.88319746
0.30552218
0.29279449
0.89884421
0.19407323
0.79200798
0.03748374
0.96382128
0.61226903
0.06525199
0.98601562
0.80129907
0.51021021
0.06116012
0.82478422
0.74323961
0.41759560
0.37824449
0.82501530
0.59655203
0.24483109
0.71063849
0.12594510
0.30378358
0.72926059
0.25540501
0.52597166
0.95001726
0.36852210
0.65159040
0.01341670
0.25171956
0.95711258
0.30621119
0.15056377
0.15118581
0.09821917
0.18804751
0.11500708
0.71048820
0.25329950
0.10102270
0.51178727
0.76350971
0.16218282
0.33657149
0.50674931
0.57977842
0.71481598
0.33176462
0.17633045
0.95964707
0.04240311
0.30227555
0.26343065
0.77166369
0.55768056
0.78940231
0.72168095
0.92620266
0.44099271
0.73509765
0.17792222
0.39810528
0.04130884
0.32848599
0.54929109
0.13952801
0.51653350
0.66429818
0.85001622
0.76983300
0.76532088
0.36180349
0.53334271
0.92750370
0.69837498
0.04009202
0.50728212
0.41319096
0.37185664
0.68361258
0.37283803
0.41425974
0.98588813
0.63626868
0.18592344
0.54356869
0.42567099
0.90760439
0.46977135
0.86666369
0.64270204
0.64769357
0.26476898
0.68401088
0.97617956
0.81406007
0.82353889
0.49271306
0.47835825
0.67355510
0.26254606
0.24367913
0.03535859
0.79588877
0.17118283
0.73373357
0.83598079
0.67846495
0.14692453
0.20783742
0.36207752
0.51976256
0.62209717
0.34796565
0.15603124
0.80802060
0.89153434
0.58170223
0.71562499
0.36130569
0.44836592
0.35832703
0.00899926
0.71313490
0.04233790
0.98517882
0.52719497
0.86587679
0.47789188
0.00555322
0.53943189
0.74043795
0.24923234
0.57479048
0.53632671
0.42041517
0.30852405
0.37230750
0.09888012
0.45544858
0.58014493
0.46095764
0.97521114
0.20224209
0.80892329
0.13124238
0.01026270
0.70045763
0.71294461
0.72588769
0.06176332
0.16131053
0.08421472
0.07076257
0.87444543
0.12655262
0.05594139
0.40164040
0.99242941
0.53383328
0.40719362
0.53186130
0.27427122
0.65642596
0.10665178
0.81059794
0.07684113
0.41517584
0.18290544
0.17572125
0.87062442
0.76305036
0.63667889
0.84583556
0.96529246
0.44560218
0.97707795
0.97555515
0.14605981
0.69002256
0.70144284
0.20782313
0.85133309
0.78565756
0.27858571
0.72577852
0.91221018
0.33452710
0.12741892
0.90463958
0.86836038
0.53461253
0.43650088
0.14263160
0.19103850
0.54315267
0.95322954
0.26787963
0.95832851
0.13613497
0.44360088
0.82895293
0.89918534
0.08027977
0.67478849
0.86447779
0.52588195
0.65186644
0.84003294
0.67194176
0.34188900
0.54147579
0.87976489
0.19322208
0.32713335
0.15835060
0.91900060
0.23934352
0.49287770
0.04641952
0.14398311
0.36123808
0.58103205
0.58048399
0.50386968
0.77207055
0.12363666
0.45709921
0.03995018
0.08196517
0.59323419
0.48355105
0.91091809
0.49241952
0.56383082
0.58570658
0.35689731
0.08971277
0.23757302
0.19693026
0.76165453
0.57946202
0.73840604
0.64141942
0.77268410
0.06553939
0.79977002
0.69168470
0.30488291
0.29264772
0.73810422
0.44886602
0.65388580
0.31913627
0.02935001
0.15775547
0.09120682
0.15298667
0.61485469
0.13115699
0.23495183
0.20808887
0.61470805
0.14586992
0.70050840
0.17853887
0.73157651
0.05740571
0.26825163
0.96914953
0.25433597
0.02990616
0.54861155
0.99274201
0.67132558
0.32129565
0.05828140
0.47109560
0.01298035
0.36316431
0.76374332
0.75108457
0.81203033
0.41762911
0.07022084
0.84138034
0.57538459
0.16142765
0.99436700
0.19023928
0.29258465
0.22931884
0.39832815
0.90729269
0.37518876
0.09883655
0.08583156
0.10676527
0.15624225
0.35408319
0.07591480
0.41057822
0.38398935
0.62452634
0.40332023
0.05531493
0.94582199
0.46160163
0.52641053
0.95880234
0.82476594
0.29015384
0.70988691
0.63679626
0.70778296
0.78010774
0.47817660
0.28316755
0.94153539
0.47254360
0.47340682
0.23412004
0.70186244
0.87173497
0.14141273
0.07705120
0.97057152
0.22724429
0.18381647
0.12681377
0.58132747
0.25973126
0.53739199
0.96531682
0.88425761
0.94071222
0.02063175
0.83007960
0.40231385
0.54704227
0.78888194
0.22707978
0.83719612
0.49876884
0.86387605
0.54497908
0.27887658
0.34205265
0.82814662
0.22041198
0.81459625
0.30155344
0.45453201
0.51645869
0.17328842
0.59594474
0.59350989
0.14385993
0.82318903
0.77732636
0.27067371
0.40451650
0.03705762
0.80806570
0.36983332
0.92131523
0.74877792
0.39046507
0.75139483
0.15109176
0.93750734
0.54027676
0.37817155
0.77470346
0.03904560
0.24204759
0.31968253
0.31792219
0.58410024
0.14782916
0.53833416
0.39869649
0.44938260
0.99286618
0.91515518
0.62267102
0.58881092
0.50866507
0.76653095
0.41199995
0.28599142
0.03720466
0.81651645
0.32304904
0.84527036
0.18634977
0.24436427
0.59404827
0.57681484
0.99575910
0.74514004
0.51432218
0.53603586
0.12331158
0.28902564
0.57508146
0.36535918
0.60870818
0.89300365
0.94945942
0.75653733
0.43133781
0.34815591
0.20591994
0.42420399
0.26331109
0.82859095
0.01301490
0.77197615
0.59512191
0.42501485
0.05796757
0.63232657
0.24153130
0.38101662
0.47759692
0.42788107
0.62538089
0.07164520
0.00469591
0.62113999
0.81678523
0.51901809
0.15717584
0.94009681
0.80804373
0.73225731
0.30545599
0.41675191
0.62526096
0.25491541
0.17328924
0.05659877
0.60307131
0.37920918
0.48080275
0.86638240
0.20780013
0.49381765
0.63835855
0.80292204
0.91883250
0.69632612
0.43524861
0.16036380
0.07734274
0.91284553
0.58824486
0.70272363
0.98449072
0.59294077
0.32386362
0.80127596
0.11195886
0.48103946
0.74137277
0.92000259
0.21329677
0.04682876
0.33675450
0.83855772
0.30174416
0.51004374
0.89515649
0.90481547
0.88925291
0.37595924
0.77119787
0.09705305
0.86977689
0.40955642
0.89997508
0.78860939
0.10588255
0.33522369
0.94897319
0.18322529
0.24806922
0.53721805
0.88594892
0.23255994
0.13015882
0.20981254
0.03383590
0.24211768
0.69085200
0.77520866
0.16212027
0.90414877
0.82203742
0.49887477
0.74270649
0.12378158
0.00891850
0.63786297
0.02859706
0.89817142
0.01382221
0.79979493
0.99522446
0.88359910
0.20935135
0.89519955
0.67220850
0.31523390
0.23042324
0.62118169
0.49845919
0.47849245
0.15839974
0.38440811
0.71105239
0.28855857
0.59422065
0.74488829
0.53067625
0.28507265
0.52009695
0.69279652
0.18922141
0.34213438
0.19167128
0.93192790
0.46591596
0.20058979
0.56979087
0.49451302
0.09876121
0.58361308
0.29430795
0.09398567
0.46721219
0.50365930
0.98918522
0.13942069
0.81889320
0.21960845
0.76060237
0.31735239
0.69810091
0.91900212
0.70176050
0.40915330
0.20756068
0.29598115
0.15404159
0.73823693
0.58105379
0.67413854
0.43103345
0.77027520
0.01627292
0.62270473
0.70220310
0.48218888
0.82329452
0.27199397
0.97670190
0.92205573
0.85560706
0.27100984
0.01604140
0.32281924
0.77466914
0.00522662
0.46223993
0.59356234
0.22483507
0.22284231
0.91091473
0.92293598
0.14184442
0.61267523
0.33208928
0.34940511
0.90865638
0.48613087
0.08764204
0.48971017
0.16026941
0.51867549
0.25998537
0.17654233
0.14138022
0.96218847
0.65873121
0.96467474
0.23418244
0.63543311
0.88673047
0.08978950
0.90644295
0.90277187
0.41260874
0.68111210
0.90799849
0.87484867
0.27467444
0.13283356
0.09769098
0.18558917
0.05576954
0.23953540
0.79826441
0.38785882
0.58894051
0.70692078
0.87398969
0.67658255
0.19663095
0.03425910
0.19525803
0.45661633
0.21080143
0.33663826
0.41880480
0.86953264
0.30131300
0.65298724
0.50496575
0.18804347
0.74277674
0.41140870
0.09081534
0.15538548
0.09252080
0.99881383
0.03023415
0.36719524
0.13164738
0.12792513
0.55278441
0.18741692
0.36746053
0.35104882
0.57527574
0.95640104
0.05796960
0.44926542
0.63298359
0.25460055
0.48352452
0.82824162
0.71121688
0.69432595
0.16487988
0.13002167
0.56385860
0.46619288
0.78300891
0.06882434
0.65423635
0.52578565
0.48023305
0.74505168
0.68117112
0.57275384
0.74386551
0.71140527
0.93994908
0.87551289
0.83933040
0.49273349
0.06292981
0.20679093
0.84378231
0.63820555
0.16319198
0.90175190
0.08747097
0.79617556
0.15635246
0.57099549
0.62441719
0.86756933
0.26532144
0.78929707
0.99759101
0.82918004
0.25548994
0.78059992
0.89800439
0.90972629
0.30638556
0.37823743
0.65477797
0.98755669
0.95099127
0.39864348
0.69896196
0.89094036
0.27415638
0.53829236
0.38367384
0.33708619
0.74508330
0.22745615
0.97529174
0.90827527
0.12920805
0.06276271
0.70445084
0.28556051
0.63375821
0.32886802
0.15312984
0.89907965
0.11816509
0.15072085
0.72825969
0.37365503
0.93132076
0.62626408
0.28338132
0.23770632
0.00450151
0.93815929
0.22526301
0.95549278
0.33680277
0.92422497
0.84643314
0.61095915
0.46251733
0.23010698
0.94804534
0.20760063
0.45756313
0.92333708
0.11587590
0.58677118
0.98609979
0.82032673
0.87233169
0.61985800
0.14919475
0.02546153
0.51893765
0.26735984
0.17618238
0.24719734
0.64101487
0.10750314
0.87346142
0.92439619
0.34520947
0.87796292
0.86255548
0.57047248
0.83345570
0.19935825
0.49469745
0.67988884
0.81031739
0.95721478
0.90999582
0.75836273
0.16481540
0.36755895
0.68169981
0.28069130
0.95433013
0.66779960
0.10101803
0.82666183
0.28765759
0.25021279
0.85212336
0.80659524
0.51757263
0.02830574
0.05379258
0.15858750
0.13580888
0.92725400
0.08298369
0.48101835
0.80521692
0.94553916
0.05149083
0.63867262
0.14489741
0.54618828
0.31856146
0.95521481
0.50340305
0.22855728
0.71357754
0.66821846
0.59611623
0.39527734
0.94890976
0.55044637
0.06307694
0.04992779
0.37710819
0.35073453
0.30014058
0.22923155
0.15732978
0.81771321
0.25753729
0.21112236
0.97630071
0.39334618
0.13837635
0.05928440
0.87436453
0.94359327
0.00482357
0.92585536
0.58226589
0.14972098
0.47204363
0.90082736
0.10493578
0.97544668
0.12938464
0.81851332
0.64366514
0.72550087
0.21379066
0.59257490
0.27594723
0.27686760
0.64250269
0.65305542
0.62760214
0.94264327
0.88228698
0.78493191
0.76035648
0.13982427
0.99605427
0.73665720
0.53317045
0.13443063
0.79594160
0.40753497
0.07802390
0.80076516
0.33339033
0.66028980
0.95048614
0.80543396
0.56111715
0.05542192
0.78088064
0.69050179
0.87393524
0.42454578
0.41600265
0.08772590
0.01712067
0.69194988
0.36459351
0.65962336
0.34500531
0.99219564
0.60226663
0.22729229
0.77712756
0.36262311
0.36711655
0.77318183
0.09928030
0.90028700
0.90761246
0.89522190
0.30782197
0.98563636
0.69598706
0.64121230
0.64592616
0.64647321
0.44664626
0.20704331
0.70189513
0.22752690
0.89754509
0.57583037
0.65207267
0.31354775
0.66355628
0.66919335
0.00549763
0.02814978
0.32881671
0.35050294
0.02034543
0.93108334
0.57779522
0.79747299
0.29370644
0.94491178
0.57065482
0.39298675
0.84519878
0.47826728
0.28820865
0.15302075
0.46390364
0.98419572
0.79423305
0.10982980
0.63066892
0.24087930
0.31687311
0.33256405
0.46840620
0.21441820
0.90839442
0.12047887
0.52796594
0.57195069
0.78967222
0.53346357
0.60010048
0.11848892
0.88396651
0.62044590
0.04957226
0.46176174
0.41791889
0.34327870
0.40667352
0.98857371
0.73626545
0.25187230
0.46684099
0.02447410
0.40489305
0.93074463
0.00866982
0.19912609
0.04057443
0.63933874
0.44000540
0.35744753
0.97190278
0.90841159
0.57186573
0.88029720
0.02889047
0.09983168
0.45224790
0.81856268
0.63329525
0.05234838
0.93705161
0.51726176
0.67279428
0.98662387
0.97902350
0.09071317
0.32990257
0.38569702
0.07928688
0.06616802
0.63756931
0.54612787
0.09064212
0.04246236
0.47687250
0.09931194
0.24158845
0.51744693
0.73865067
0.68159385
0.87489446
0.71055346
0.59000544
0.44676019
0.59085066
0.61889591
0.54659187
0.04309856
0.43745859
0.17988712
0.09544694
0.37451020
0.69714888
0.76824122
0.36113406
0.67617238
0.85895439
0.69103663
0.06186940
0.93824127
0.75720465
0.69943871
0.48436914
0.84784677
0.74190107
0.96124164
0.94715871
0.98348952
0.47868856
0.68580938
0.66508337
0.35358302
0.39636284
0.25508881
0.80034322
0.98721351
0.87398472
0.34693509
0.03031207
0.31144331
0.52682221
0.12575900
0.68595351
0.22397109
0.89400022
0.04708757
0.90014347
0.75295461
0.73812420
0.96201287
0.69119588
0.49532885
0.66145159
0.17556502
0.34317562
0.40335266
0.13680666
0.29033433
0.38684218
0.61549522
0.97614371
0.05192555
0.96907825
0.37250655
0.30701436
0.76942147
0.35972006
0.18099908
0.11635655
0.39003212
0.49244239
0.64317876
0.51579113
0.17839590
0.86714984
0.40979135
0.22548347
0.76729332
0.16274596
0.96360767
0.72930619
0.85394185
0.45893652
0.39075777
0.02950687
0.80211215
0.79411043
0.16631353
0.09244647
0.18095261
0.78180875
0.06859019
0.23287816
0.75088700
0.44109674
0.53989251
0.52030847
0.80081680
0.72089159
0.63666502
0.19084892
0.21333398
0.27984377
0.70664005
0.39172988
0.14699362
0.11643140
0.61721335
0.91428693
0.27917737
0.58082102
0.64359312
0.13311921
0.03975754
0.03435089
0.16262608
0.84186969
0.82846132
0.32893961
0.93431616
0.00941393
0.11074836
0.00290635
0.24229209
0.86163536
0.44400309
0.78218460
0.38194383
0.24481989
0.50307619
0.01860884
0.43566881
0.71641017
0.29845262
0.14230886
0.10814005
0.44544623
0.25874026
0.72535339
0.35973317
0.53791763
0.30617441
0.00332629
0.67103685
0.34593196
0.03767718
0.83366293
0.18780165
0.86613850
0.16260254
0.12211781
0.87555243
0.27335090
0.12502416
0.11784452
0.13498626
0.56902725
0.90002912
0.51693009
0.81384713
0.40310531
0.53553893
0.24951594
0.11951548
0.83399155
0.39182480
0.22765552
0.27943778
0.65056506
0.95300892
0.63917095
0.18848269
0.25918333
0.64249724
0.85951954
0.60511529
0.68017442
0.69318247
0.79291693
0.54631292
0.85578501
0.91503474
0.42186535
0.12913591
0.04005890
0.53970987
0.26412217
0.60908615
0.43973899
0.78105226
0.42293328
0.84284429
0.31659119
0.67244922
0.96235977
0.15058274
0.06427402
0.19001530
0.43002052
0.71483908
0.14302422
0.06919147
0.90332177
0.40220755
0.71168871
0.76284131
0.00732284
0.39186313
0.45602378
0.80023977
0.93817605
0.31180879
0.71527452
0.36004140
0.44094470
0.75533342
0.89975127
0.70506687
0.36441956
0.33949026
0.48611912
0.78735284
0.18233455
0.80271032
0.45980206
0.14469432
0.95329306
0.52407608
0.33470962
0.38331358
0.23891516
0.47773383
0.45250506
0.14223693
0.87994138
0.16419377
0.90507824
0.88726422
0.55605690
0.36110203
0.68750399
0.49423295
0.67291081
0.40277851
0.85427435
0.11385551
0.15811192
0.75402562
0.81892237
0.52253148
0.09351588
0.30504150
0.30988433
0.27585043
0.10775181
0.76968639
0.42054475
0.06104487
0.29376247
0.75525437
0.44435845
0.53267763
0.23298820
0.89686351
0.67491456
0.11292958
0.06105728
0.57999280
0.00019380
0.61711417
0.94109483
0.68769779
0.11134712
0.61400564
0.09047630
0.96562147
0.72786115
0.24858822
0.71964709
0.54678352
0.77111970
0.81316297
0.85182502
0.08100403
0.08901340
0.95957684
0.85069042
0.50955815
0.02062171
0.14445288
0.26481252
0.46498016
0.67713051
0.49780072
0.36184366
0.35204507
0.61073030
0.42290094
0.93203787
0.61092410
0.04001511
0.87313269
0.29862189
0.15136224
0.48713833
0.38909819
0.11698371
0.21499948
0.63768640
0.83663080
0.76178300
0.40880610
0.64979377
0.61360802
0.48981013
0.73880717
0.57318486
0.34050055
0.24836532
0.59380657
0.48495343
0.51317784
0.05878672
0.16208394
0.01097856
0.42063039
0.51412901
0.62170886
0.84353133
0.44616687
0.23263296
0.88354644
0.31929957
0.53125485
0.03490868
0.80643790
0.92035303
0.15189239
0.02143738
0.55803944
0.98852319
0.78322039
0.96684554
0.63831696
0.39682841
0.45665567
0.37712413
0.97001327
0.79715622
0.62548946
0.56381984
0.28210966
0.13866729
0.62260656
0.44419360
0.14964585
0.04323695
0.95832261
0.77135470
0.88676828
0.40448948
0.00398766
0.77031472
0.72378905
0.53524251
0.80522340
0.53022695
0.45559554
0.95711578
0.55166433
0.01363498
0.94563897
0.33488472
0.98048052
0.58395593
0.73171313
0.43713619
0.96108007
0.70172640
0.23429241
0.58656952
0.26554624
0.51640207
0.72523682
0.88815279
0.96059567
0.87488267
0.93138974
0.91891827
0.64623737
0.81815802
0.32340775
0.65022503
0.58847273
0.04719680
0.18546754
0.39369613
0.57742375
0.64106308
0.35081191
0.12908808
0.65469806
0.29645089
0.46397280
0.63517857
0.88040682
0.19568593
0.07231476
0.84148689
0.89741233
0.30660717
0.42805641
0.16295856
0.82300924
0.15329323
0.05111136
0.78360490
0.02817590
0.98250110
0.70252318
0.67441327
0.80065912
0.02593093
0.32463830
0.38913185
0.07312773
0.51010584
0.78282798
0.65055148
0.15116892
0.13363990
0.77963957
0.80586698
0.43009078
0.24361237
0.44104555
0.31049760
0.43929830
0.51336031
0.15198449
0.33671063
0.81996748
0.58004090
0.49966919
0.64297672
0.73333413
0.55078055
0.42658162
0.76151002
0.53328165
0.12910480
0.43592329
0.33394077
0.15503572
0.76056159
0.72307262
0.22816346
0.27066743
0.50590060
0.87871494
0.42183635
0.63954050
0.65835451
0.22770333
0.06963128
0.90196687
0.66874888
0.38012888
0.34126517
0.18210919
0.53211336
0.67797580
0.00207668
0.11215426
0.17764499
0.64505340
0.84548839
0.72842554
0.07163502
0.60699841
0.26170718
0.20073981
0.04292170
0.59564795
0.35577554
0.80348329
0.31872057
0.58393899
0.07415072
0.82462117
0.46265393
0.49598707
0.46416166
0.12100844
0.72369040
0.53379294
0.02297531
0.39243929
0.91392182
0.36424048
0.57454848
0.44603518
0.04221628
0.57662516
0.55818945
0.21986126
0.22167855
0.40367783
0.94828680
0.29331357
0.01067624
0.20999399
0.49405338
0.05359794
0.80564194
0.84982892
0.85708123
0.12436250
0.43376791
0.93123195
0.94898367
0.89642184
0.42721902
0.41314534
0.01743028
0.15090943
0.94693828
0.04040558
0.54334871
0.86086010
0.40464607
0.11789719
0.30689528
0.44686234
0.69452235
0.86508473
0.66672361
0.91620091
0.26876256
0.61501041
0.20951448
0.27943880
0.82500439
0.70356786
0.33303675
0.63064633
0.55339678
0.19011798
0.75500883
0.98716469
0.12134993
0.70399250
0.88358653
0.54856896
0.11713784
0.90101680
0.69947838
0.06407612
0.94142239
0.24282710
0.92493622
0.34606845
0.36072429
0.23183150
0.79293080
0.05524664
0.09691622
0.45965440
0.97144755
0.36567878
0.07466481
0.18096203
0.64511759
0.89966920
0.88452989
0.97815434
0.53031553
0.43792666
0.16827232
0.28532436
0.42509135
0.28962225
0.98931687
0.30867788
0.83819120
0.10645471
0.20969468
0.53766959
0.17053083
0.15111707
0.78049668
0.09546704
0.49718553
0.14122097
0.32729854
0.29011632
0.19646762
0.42421476
0.74977072
0.16791517
0.78989355
0.82443553
0.34887719
0.43501113
0.72410474
0.23340708
0.41316547
0.25442027
0.67133374
0.58143779
0.53974463
0.09642509
0.87106003
0.52906149
0.40510297
0.70925124
0.63551620
0.61479765
0.24692082
0.80604703
0.76591473
0.02741751
0.90151407
0.26310025
0.16863848
0.22881261
0.55321657
0.36510610
0.65302737
0.30298730
0.53302127
0.44292092
0.12742283
0.88189846
0.87793205
0.85152757
0.11530554
0.29109752
0.10594783
0.78663929
0.87253531
0.64569246
0.88306438
0.74359534
0.17475395
0.28816735
0.45284658
0.81027015
0.90296501
0.69976741
0.61631718
0.66887973
0.72718491
0.51783125
0.93197999
0.89582339
0.74664385
0.48519656
0.26092949
0.39967122
0.78818386
0.79395076
0.84259214
0.91560669
0.67584922
0.72052419
0.76713426
0.79115476
0.01162172
0.87308209
0.57779405
0.88415702
0.51877455
0.46085843
0.62775237
0.69352850
0.74902578
0.08059895
0.50379865
0.65199079
0.78036636
0.12011583
0.32087052
0.50755127
0.63794707
0.25285050
0.40337466
0.38459093
0.73804706
0.66430415
0.78426215
0.52623092
0.45825491
0.62685429
0.44183761
0.13410413
0.34737848
0.20897186
0.92525889
0.35900020
0.08205395
0.50305293
0.24315722
0.60082850
0.96391136
0.87090959
0.29435700
0.71293714
0.95150854
0.79815565
0.36492792
0.73187490
0.91827147
0.68579844
0.23942617
0.55621855
0.93864894
0.64280083
0.94080947
0.67669601
0.30710498
0.72507162
0.20292693
0.76535989
0.35192592
0.64476453
0.89946402
0.69930440
0.85373640
0.82472290
0.05830460
0.93579035
0.32777583
0.30146182
0.53661884
0.29168719
0.17237142
0.83097584
0.00462432
0.12387996
0.62913149
0.36955224
0.85575486
0.54740296
0.05535068
0.09518102
0.10362150
0.99399963
0.73798185
0.04443098
0.67069564
0.04508683
0.76950260
0.87362256
0.81044672
0.12142852
0.51838710
0.70991074
0.82073292
0.37212349
0.53463364
0.87903752
0.30791384
0.86240947
0.18049934
0.84453269
0.15409666
0.35287076
0.67550853
0.15872098
0.47675072
0.30464001
0.52827323
0.33250558
0.85204297
0.58362391
0.42768660
0.95566448
0.57762354
0.16566845
0.00009545
0.24831918
0.21075528
0.76959806
0.12194174
0.02120200
0.89102657
0.64032884
0.73111274
0.71175949
0.01245233
0.26574638
0.59079700
0.32036617
0.12815585
0.77129635
0.16489886
0.28225250
0.12416710
0.84040739
0.44097349
0.60091782
0.14504740
0.96924671
0.93342340
0.99709037
0.55287062
0.36111000
0.95275485
0.13049416
0.52677845
0.95285030
0.37881334
0.73753374
0.72244836
0.50075508
0.75873574
0.61347493
0.14108391
0.48984848
0.32523441
0.15353625
0.75559486
0.91603142
0.47390242
0.88375070
0.68732776
0.63880128
0.16600321
0.81149487
0.47920867
0.60697669
0.41241269
0.62425607
0.57622340
0.34583609
0.62134644
0.12909403
0.70694608
0.57410129
0.25958819
0.23372454
0.52695159
0.63840153
0.97125827
0.24939994
0.13915660
0.72999401
0.86287487
0.28024052
0.21984249
0.18810928
0.43377677
0.97543735
0.10414070
0.90767919
0.85918805
0.79146847
0.54648047
0.02519126
0.60296333
0.02568914
0.63216795
0.01537602
0.64994521
0.20839135
0.36121210
0.27129166
0.33748538
0.06815819
0.84539295
0.59707356
0.30188272
0.37234454
0.23547509
0.27314100
0.62174448
0.37463169
0.00313501
0.48461935
0.65487221
0.22297750
0.67272863
0.08864898
0.19841485
0.77686934
0.99632816
0.05760291
0.56833780
0.54280863
0.08279416
0.17130113
0.56849778
0.71496211
0.18667715
0.21844299
0.92335346
0.54788925
0.48973465
0.26083884
0.61604744
0.33512759
0.85791240
0.91793017
0.70747213
0.09338749
0.19107116
0.32921661
0.46801919
0.19420617
0.81383596
0.12289140
0.41718368
0.48656459
0.21154037
0.61559853
0.26343393
0.20786854
0.67320144
0.83177173
0.75067717
0.75599560
0.00307286
0.31917495
0.47095771
0.18975002
0.53761794
0.39431118
0.73763927
0.02735259
0.65515002
0.35368671
0.36248018
0.51306242
0.27161688
0.06995231
0.60644991
0.46268804
0.39916892
0.07446910
0.65689421
0.21300488
0.19736050
0.07407789
0.69956947
0.40890087
0.68967642
0.96300340
0.61676941
0.36287785
0.79477513
0.36744658
0.11887345
0.79784799
0.68662153
0.58983117
0.98759801
0.22423947
0.98414234
0.72523728
0.25159205
0.63929236
0.07892399
0.61407224
0.15235478
0.35054087
0.68402455
0.75880469
0.81322892
0.08319347
0.83327379
0.47012313
0.29619834
0.03063429
0.54420102
0.99576781
0.43953516
0.23387744
0.95877121
0.05630456
0.59675529
0.75354634
0.42375114
0.71562874
0.55139433
0.11037266
0.30545991
0.53899234
0.33461213
0.28960225
0.26422963
0.58620419
0.92889461
0.34315362
0.20027642
0.08124939
0.69369449
0.88430097
0.84005408
0.50692341
0.96749444
0.67332787
0.97704654
0.26369278
0.70396216
0.52124755
0.25946060
0.14349732
0.75512499
0.21823181
0.19980188
0.35188028
0.97177815
0.62355302
0.06750902
0.52317248
0.73392569
0.37296892
0.06216483
0.06853782
0.66257117
0.32639445
0.65474201
0.59146578
0.66954807
0.85501843
0.67271516
0.36324257
0.73931940
0.51276924
0.87016597
0.70681384
0.18609712
0.84721251
0.97050662
0.89005928
0.36846006
0.22996722
0.03355660
0.12358505
0.44819903
0.23335848
0.47546533
0.41997718
0.85691151
0.54297435
0.94314966
0.59083720
0.91594327
0.00531449
0.65937502
0.57851444
0.33170895
0.31411702
0.16998022
0.00125702
0.16913545
0.84269538
0.36449959
0.90845485
0.35546462
0.23466556
0.61526869
0.54156174
0.08187807
0.58577531
0.43162102
0.45033813
0.81574253
0.46517762
0.57392318
0.26394156
0.69853610
0.04938851
0.68391874
0.55544761
0.59236285
0.62706840
0.14628481
0.50830612
0.63238290
0.80565983
0.08682056
0.96409184
0.11977685
0.25680078
0.96534886
0.28891230
0.09949616
0.32984845
0.19736715
0.45496079
0.56451401
0.81263584
0.99652253
0.64639208
0.39841115
0.42814355
0.09673021
0.21415369
0.89332117
0.67065339
0.47809525
0.59185727
0.72004190
0.16201398
0.14730489
0.31240475
0.78908239
0.29358970
0.82071087
0.42146528
0.09924953
0.90753144
0.38555712
0.21902638
0.16433222
0.35090599
0.50793868
0.26382838
0.68075444
0.70530584
0.71878917
0.24526845
0.51794168
0.71531170
0.89166053
0.91635283
0.14345525
0.98839073
0.13050652
0.03677642
0.65904412
0.60860177
0.62863369
0.37908602
0.77061575
0.77593858
0.69149077
0.55969814
0.06952827
0.51220164
0.98116342
0.16877780
0.41973308
0.36672054
0.38780417
0.58406530
0.71762653
0.89574285
0.84789368
0.39838097
0.60104869
0.56668285
0.64364942
0.11899037
0.28199455
0.53530994
0.03534320
0.42544980
0.52370068
0.16584972
0.46222622
0.18274480
0.77445149
0.09085991
0.56183081
0.54506724
0.86679848
0.25332158
0.10476538
0.93632676
0.76552322
0.08592880
0.10510455
0.18525630
0.45264934
0.49290873
0.76932160
0.17027588
0.38865158
0.61721528
0.56865685
0.98970027
0.18389813
0.21230627
0.10869064
0.46589268
0.74761621
0.14403384
0.89134248
0.27131689
0.30988357
0.35356870
0.45406168
0.08433506
0.44442861
0.01589250
0.62940230
0.31122709
0.26921408
0.73416768
0.24755385
0.03473730
0.82009648
0.35265840
0.21999360
0.27274582
0.84556713
0.98931519
0.44302169
0.23421871
0.60653047
0.01167854
0.22391898
0.79042860
0.22398481
0.33260962
0.25632128
0.97160102
0.47664346
0.14766376
0.24291790
0.78652703
0.50123246
0.69697959
0.87086208
0.94566107
0.71287209
0.50026438
0.25688816
0.98208616
0.23443206
0.50444201
0.01682346
0.05452853
0.85710041
0.23681706
0.32727435
0.70266754
0.22613225
0.77029605
0.93688624
0.83266272
0.78197459
0.16080522
0.62309132
0.00595940
0.49341484
0.87941260
0.97756041
0.97005830
0.02707637
0.22047832
0.75658532
0.52830883
0.91745791
0.62744741
0.47396990
0.63032999
0.12771179
0.73085807
0.61241615
0.36214385
0.23530008
0.62923962
0.41667238
0.09240049
0.86605668
0.74394674
0.79506802
0.09218893
0.51424278
0.73195427
0.92485165
0.29621737
0.89275948
0.54794298
0.30217677
0.38617432
0.42735558
0.27973718
0.35623261
0.45443195
0.50021550
0.11281794
0.98274078
0.41767340
0.74026535
0.45671068
0.04800339
0.86797714
0.18756874
0.66041955
0.23012098
0.42286882
0.28965916
0.64679337
0.51526931
0.15571584
0.39074010
0.31033733
0.24790477
0.90498289
0.04229160
0.17275643
0.20120026
0.93505108
0.72069940
0.50337702
0.32122540
0.14805498
0.78311420
0.67745802
0.60248693
0.28332970
0.79027595
0.58522771
0.70100310
0.53054130
0.04193838
0.74900649
0.39851844
0.22950712
0.40942604
0.62863942
0.65237594
0.69908520
0.27543279
0.16764525
0.85480105
0.66617289
0.47798258
0.10270582
0.57115578
0.52027418
0.27546224
0.77235603
0.45532526
0.99616164
0.27573305
0.77655066
0.14421663
0.05884725
0.45400868
0.74670356
0.34217695
0.24428463
0.33193126
0.04318005
0.77482593
0.37386965
0.79218655
0.17334436
0.60337677
0.20161259
0.80198379
0.25575271
0.90069779
0.07741657
0.42339796
0.75549883
0.74358946
0.90138054
0.85820465
0.31474524
0.42165472
0.13366689
0.08710127
0.87697998
0.12982854
0.36283433
0.65353064
0.27404516
0.42168158
0.10753932
0.02074872
0.76385853
0.35182395
0.35267998
0.80703858
0.12664988
0.72654963
0.59922513
0.29999424
0.32992640
0.80083771
0.10197803
0.58567911
0.70153550
0.17939460
0.00907707
0.45703434
0.92298406
0.91045762
0.31523899
0.23772931
0.33211234
0.44890588
0.32483058
0.20909232
0.57873441
0.68766490
0.86262296
0.85277958
0.10934648
0.97016228
0.87352830
0.87320502
0.32198622
0.22620828
0.68024360
0.44863610
0.95275791
0.27946873
0.74863034
0.28268431
0.08030644
0.85060837
0.86836342
0.78184195
0.03000297
0.87744049
0.23887628
0.95298703
0.78789811
0.55411527
0.19071634
0.12001045
0.00302115
0.51554691
0.32910277
0.58175556
0.20321182
0.19172573
0.43453514
0.31255830
0.16188800
0.30806344
0.18576332
0.48387422
0.53427171
0.86600692
0.93251032
0.48702962
0.14547564
0.68114066
0.76971393
0.22578209
0.53174903
0.63807735
0.00762403
0.56175199
0.51551784
0.24650031
0.51473902
0.30341595
0.80061558
0.70545536
0.42342640
0.80363673
0.22100227
0.75252916
0.38539230
0.42421409
0.94425489
0.81992744
0.73677239
0.10614289
0.12799087
0.92253571
0.59001711
0.66226258
0.78854262
0.52252743
0.14929221
0.93401827
0.20366809
0.91900613
0.15980035
0.73541712
0.55708348
0.16742438
0.29716911
0.07260132
0.41392470
0.81190814
0.37601726
0.21454028
0.51736350
0.79944366
0.01817702
0.73836577
0.55197282
0.40356931
0.16257986
0.49622771
0.22349675
0.89935225
0.60237060
0.35148762
0.82188796
0.19238771
0.01375020
0.61043058
0.71491514
0.16304241
0.54444885
0.91858324
0.08204854
0.70424920
0.65400036
0.63913202
0.87167358
0.95116947
0.71173334
0.28559828
0.76307761
0.08775060
0.50013856
0.28044111
0.88719425
0.51831558
0.01880687
0.43916707
0.92188489
0.18138673
0.93539478
0.14538164
0.08073898
0.53776538
0.49686925
0.90262693
0.73015308
0.51061946
0.51305751
0.44506823
0.67366186
0.05750636
0.36365146
0.75571041
0.76175556
0.01765182
0.39484243
0.63342914
0.96882130
0.10657576
0.91902741
0.73189891
0.19432636
0.41916597
0.01234001
0.08152061
0.93748155
0.03114688
0.52068769
0.85936644
0.21253362
0.45608247
0.00474807
0.29327259
0.99384784
0.50161733
0.19589953
0.72400093
0.01223678
0.70895704
0.16906915
0.68589864
0.76646340
0.53272062
0.44160905
0.52821896
0.55037244
0.83645148
0.16164809
0.51919374
0.94302724
0.08067551
0.25109264
0.13735359
0.49984148
0.26343266
0.21887421
0.43732303
0.29457954
0.73956189
0.29668947
0.50711316
0.19564436
0.30143754
0.80038575
0.18949220
0.80305486
0.99628528
0.91349313
0.81529164
0.70524232
0.08256228
0.50119029
0.47170572
0.61528290
0.94279934
0.99992468
0.16565534
0.77925081
0.16157277
0.68484908
0.72227805
0.24224828
0.93594172
0.85963164
0.74208976
0.19937438
0.07850585
0.17941279
0.49395392
0.81806774
0.47610225
0.00106708
0.01371210
0.77753979
0.80145283
0.20320430
0.58059465
0.79773811
0.11669743
0.39588630
0.50298044
0.19925971
0.89707658
0.97468616
0.81454261
0.83987592
0.97461084
0.98019795
0.61912673
0.13618361
0.66504703
0.34140478
0.37843189
0.60098875
0.20103642
0.12052164
0.80036313
0.27954227
0.29993443
0.29431705
0.09761002
0.77603668
0.29538413
0.11132212
0.55357647
0.09683696
0.31452642
0.13417112
0.89457507
0.43122385
0.53005741
0.39755551
0.63048356
0.42713400
0.37224166
0.44502617
0.26700992
0.34685250
0.42522411
0.88613665
0.48303611
0.09027114
0.22754143
0.86146800
0.69125989
0.42857786
0.98198964
0.49162302
0.70812013
0.28192407
0.78594007
0.80573015
0.05796074
0.08132419
0.91705226
0.61153721
0.17816115
0.23157868
0.74570833
0.07273622
0.66280253
0.27576574
0.47029173
0.29328608
0.70289974
0.84253339
0.73831225
0.96990966
0.18938590
0.16353637
0.85604631
0.67242201
0.25380751
0.08358774
0.53389000
0.94506740
0.51216560
0.51587964
0.43669041
0.22028574
0.79780371
0.22263048
0.02601588
0.85576445
0.30395468
0.94306815
0.46730166
0.48211583
0.17464683
0.21300999
0.55485205
0.83744935
0.48877574
0.02514378
0.13073544
0.19167548
0.86767717
0.86904769
0.16158514
0.05706307
0.03258405
0.01763145
0.72948508
0.28639156
0.10121919
0.26337508
0.23145896
0.61338480
0.77925472
0.66814937
0.83367053
0.57705843
0.89077985
0.85968641
0.43282288
0.19473453
0.80275456
0.90012455
0.67685036
0.97740139
0.11313454
0.23170241
0.81485074
0.60191028
0.25684619
0.94558618
0.79358575
0.12452336
0.81463386
0.95517089
0.18158643
0.84721792
0.97280234
0.91107151
0.13360947
0.07402153
0.17444659
0.36506843
0.68740633
0.95370131
0.03321780
0.52107686
0.53075974
0.92399765
0.38076327
0.96358263
0.11873218
0.18351783
0.86370717
0.79558254
0.16091922
0.97684171
0.02728494
0.97576996
0.57875199
0.28413113
0.92135613
0.37233774
0.40865449
0.73598999
0.32750863
0.59024093
0.58320791
0.30031097
0.50131243
0.71681738
0.37433251
0.67575902
0.08188581
0.06173883
0.62946033
0.11510361
0.58281569
0.16022007
0.03910126
0.96357897
0.12380270
0.15783344
0.14709680
0.98750987
0.95341598
0.30801601
0.96435158
0.98070092
0.28378597
0.54310357
0.26483205
0.20514210
0.91544132
0.67348655
0.94113209
0.24294995
0.26372748
0.52434000
0.54326092
0.76503991
0.24115738
0.91759343
0.44079893
0.32304319
0.97933226
0.07025926
0.43814680
0.56214795
0.23047933
0.47724806
0.52572692
0.35428203
0.63508150
0.67282372
0.34179190
0.58849748
0.98083973
0.30614349
0.56919840
0.26462570
0.84924706
0.83403046
0.46976780
0.76468837
0.50751701
0.41089989
0.00763832
0.77124448
0.93523989
0.55089925
0.53628439
0.17639727
0.46849268
0.97708332
0.49944046
0.44782494
0.04734258
0.93758726
0.00997289
0.27782191
0.41483532
0.53569981
0.63210394
0.04991682
0.20852353
0.97389585
0.63841430
0.18936326
0.28003934
0.20761270
0.45398897
0.12928640
0.04164316
0.92375677
0.89397477
0.54916016
0.33465666
0.90161310
0.32040465
0.26989655
0.45251234
0.85668903
0.44629381
0.92100502
0.83377235
0.94573427
0.36882996
0.88111493
0.88332153
0.37880285
0.15893684
0.29815685
0.91450267
0.79104078
0.34807367
0.12302620
0.76493663
0.98648797
0.31238946
0.04497597
0.19410067
0.76637843
0.17426236
0.23574383
0.69013519
0.06823714
0.78490399
0.02479185
0.96985023
0.10530864
0.29468840
0.42236257
0.96199767
0.74098221
0.34336759
0.79577003
0.68671648
0.71219755
0.67688496
0.57003801
0.09100040
0.83582180
0.86819486
0.00550307
0.62686258
0.21626853
0.12852927
0.39179921
0.20275650
0.44091873
0.43677518
0.39685717
0.20729715
0.61103755
0.63260100
0.89743234
0.67927468
0.41750499
0.92222419
0.64912491
0.52281363
0.21691259
0.07148749
0.48481131
0.95789480
0.41485508
0.28058133
0.64461128
0.12705263
0.95746629
0.21464930
0.21805304
0.79328808
0.08284416
0.22355611
0.42015066
0.29911269
0.35208537
0.81194987
0.50186919
0.79300410
0.24872505
0.89872636
0.00030125
0.85976260
0.53132736
0.89773359
0.53903728
0.94883235
0.81995778
0.18816219
0.47164598
0.03687037
0.25964968
0.95645729
0.99476517
0.67450476
0.23703862
0.63937645
0.80155739
0.19450491
0.85402575
0.01961043
0.98779299
0.93686990
0.24316653
0.40794365
0.23598259
0.59525190
0.21989352
0.73785178
0.38825600
0.46861857
0.63657813
0.38855725
0.32838117
0.16790549
0.28629084
0.86741845
0.11673784
0.10624862
0.05558064
0.58838383
0.14311899
0.31523032
0.54484112
0.13788416
0.98973508
0.78187974
0.77726061
0.79129247
0.97638464
0.63128636
0.81090290
0.96417763
0.56815627
0.05406943
0.37212128
0.80413886
0.64932133
0.59201480
0.54199063
0.03757733
0.06063337
0.17856877
0.42613458
0.38901454
0.34647426
0.71242542
0.25643299
0.46321210
0.81867404
0.31201363
0.05159593
0.96179303
0.62724395
0.59643704
0.09967719
0.61697902
0.37831678
0.87693780
0.40827149
0.35470142
0.50822417
0.21917439
0.31887905
0.07638043
0.27324382
0.69100033
0.88051929
0.92256515
0.28301513
0.42250992
0.96014249
0.34364851
0.60107869
0.38627707
0.73266305
0.94755294
0.09870248
0.98909604
0.41076504
0.91737652
0.30110967
0.46236097
0.87916955
0.92835362
0.05879801
0.97884674
0.54533264
0.43711479
0.85578455
0.95360413
0.79181622
0.36400871
0.17277852
0.11069527
0.44038914
0.44602234
0.80169560
0.32090843
0.36858749
0.08471073
0.74341835
0.32872998
0.42835924
0.34449704
0.71500704
0.16102229
0.29204998
0.81370953
0.15011833
0.70281502
0.73108605
0.45122799
0.16517599
0.61025560
0.37958161
0.22397401
0.58910234
0.92491425
0.66108880
0.44488689
0.87851838
0.45290502
0.80889560
0.05129690
0.56360029
0.24928475
0.49731924
0.36529589
0.57019318
0.86590673
0.45000662
0.31361153
0.19463671
0.87836586
0.65810857
0.90964375
0.03938815
0.95015855
0.72335328
0.18950647
0.65297357
0.45443933
0.64073447
0.81814956
0.06469493
0.02031608
0.04212357
0.65379727
0.94523033
0.70321237
0.09868416
0.82374871
0.15611738
0.90757976
0.87504561
0.71971767
0.15686451
0.37236485
0.08501356
0.72705769
0.23827159
0.53502018
0.04066922
0.43290830
0.41338604
0.69877779
0.34255205
0.45277418
0.64893634
0.06590533
0.64228066
0.30190991
0.52034466
0.28301512
0.12005948
0.58503959
0.30333120
0.16218304
0.23883686
0.24856152
0.86539541
0.33752103
0.07231023
0.02151280
0.24510079
0.94735584
0.74123047
0.40196530
0.31972070
0.82624402
0.12902299
0.55799229
0.36126420
0.16969221
0.99090059
0.77465024
0.86847000
0.33345264
0.22742442
0.51740635
0.39935797
0.86970508
0.81931626
0.91970264
0.15272020
0.93937573
0.50474223
0.45605140
0.10155878
0.74357910
0.70461292
0.96695419
0.08110012
0.77692316
0.98846699
0.32620091
0.72427900
0.72969746
0.72816621
0.04399970
0.55594148
0.85718920
0.60199198
0.91720568
0.02688141
0.59289257
0.69185592
0.89535142
0.92634521
0.91928034
0.41275776
0.32570318
0.78898542
0.23207402
0.24540582
0.94170562
0.17144975
0.75014805
0.39775702
0.27300853
0.49372714
0.10236995
0.23996272
0.57482726
0.87929310
0.22842971
0.90102817
0.60357210
0.95812716
0.62919438
0.64757180
0.51406864
0.48638358
0.24956378
0.43127432
0.51326499
0.84245635
0.12313024
0.40861641
0.76880155
0.04241059
0.82137417
0.09450473
0.83139601
0.05344819
0.33991055
0.77310163
0.22489794
0.09005859
0.17085866
0.49790647
0.58378574
0.27322860
0.73786919
0.15861300
0.15252171
0.96629889
0.05964117
0.75609381
0.92442605
0.68883555
0.40366561
0.43849469
0.17521913
0.65322939
0.86976902
0.68848412
0.49568573
0.99289926
0.09710053
0.26448729
0.03530984
0.91847470
0.35899202
0.86670585
0.97192288
0.69890256
0.63980748
0.19682082
0.78896116
0.81066614
0.69472729
0.37274690
0.08389474
0.43259647
0.53135990
0.23641645
0.39889537
0.59100107
0.99251026
0.32332142
0.27983662
0.39617587
0.76181611
0.45505576
0.04940526
0.63158513
0.14353988
0.54509100
0.62448439
0.24064041
0.80957828
0.65979423
0.15911511
0.16857030
0.52650008
0.13103799
0.86747286
0.16630756
0.32785881
0.65643402
0.97697370
0.02258610
0.02918092
0.06086845
0.45518257
0.56054081
0.29728490
0.85407794
0.15154188
0.28979516
0.17739936
0.43137851
0.68597104
0.93921547
0.88643427
0.73537630
0.57080060
0.02997415
0.28046729
0.19528498
0.27061456
0.09004558
0.85507921
0.42972967
0.25861587
0.38157929
0.56076766
0.12608873
0.54788686
0.88862648
0.78252275
0.52486056
0.91121258
0.81170367
0.58572901
0.36639515
0.37224448
0.88301391
0.22047309
0.52378636
0.17280907
0.39787245
0.95516487
0.85878010
0.33708792
0.84159914
0.59415640
0.90788852
0.87157329
0.87462369
0.10317350
0.14218785
0.96466927
0.95825272
0.57191752
0.22328514
0.33983201
0.13268519
0.34937388
0.88771886
0.02131166
0.13189663
0.41257942
0.93252424
0.94360030
0.99830843
0.29891939
0.31584478
0.88132234
0.51939248
0.83963114
0.05413140
0.91726493
0.79479601
0.91291151
0.25435285
0.63639515
0.50706791
0.16224137
0.50796844
0.38169160
0.26541487
0.65015629
0.34636087
0.22366758
0.22207381
0.56964601
0.56349959
0.35475899
0.91901989
0.45121846
0.37607066
0.05091651
0.86379788
0.30859490
0.99451681
0.86210631
0.60751429
0.31036159
0.74342865
0.12690678
0.14999272
0.79756005
0.04417171
0.94478874
0.71047155
0.29852456
0.58118389
0.21753946
0.46076592
0.08915232
0.59923106
0.72618079
0.73930861
0.94559193
0.94984838
0.96138242
0.51523794
0.51334797
0.31614141
0.43425782
0.96456643
0.69221207
0.48517434
0.82836431
0.00080697
0.47969114
0.69047062
0.60832127
0.79005273
0.43389927
0.73522804
0.94004546
0.23145931
0.77939975
0.88483419
0.94193087
0.07792430
0.46601808
0.15947033
0.53869023
0.55517040
0.75870139
0.26487102
0.29447901
0.70429332
0.21471940
0.25586143
0.21953125
0.72806737
0.57200285
0.65378908
0.69263380
0.26421492
0.13896341
0.52099811
0.26502189
0.61865456
0.21146873
0.87334316
0.40870729
0.64536799
0.60857120
0.34875274
0.87682731
0.38797095
0.23358693
0.81875817
0.46589525
0.69960501
0.97822850
0.00458548
0.25477541
0.73692989
0.26945650
0.54925443
0.44122320
0.48417590
0.80511586
0.66075446
0.21224327
0.37711871
0.31454353
0.90487707
0.64133363
0.45350695
0.42587517
0.90635552
0.07216150
0.63734390
0.77969868
0.48086879
0.28271189
0.38826988
0.82962153
0.15953919
0.77624083
0.06320847
0.97829737
0.24213609
0.76281348
0.95652587
0.24672157
0.01758889
0.69345575
0.51617807
0.56684332
0.13467896
0.00035397
0.37195918
0.79543341
0.21259724
0.74907789
0.10997695
0.11747430
0.39041152
0.56348389
0.54334947
0.29676704
0.63564540
0.18069337
0.07646572
0.11651419
0.46340526
0.46473560
0.94613572
0.62294445
0.24097643
0.00934419
0.60124182
0.48311252
0.77215766
0.55776768
0.72983408
0.78974656
0.25122344
0.24601215
0.35658988
0.38590239
0.24636612
0.72854906
0.18133581
0.45896336
0.47762695
0.29131276
0.57643766
0.86803847
0.85479665
0.11978714
0.16480551
0.49044204
0.30048051
0.24127123
0.60695623
0.76388577
0.70600683
0.55309195
0.38683022
0.94698326
0.56243614
0.98807204
0.43009578
0.33459380
0.54583972
0.15992986
0.12434036
0.79706316
0.40594201
0.48093024
0.18296555
0.65230814
0.20947930
0.36430136
0.11127150
0.68710625
0.65561412
0.68770916
0.55514472
0.51041077
0.80749630
0.71995024
0.00085281
0.10797681
0.96122147
0.60780904
0.87186258
0.66722830
0.16090099
0.25869280
0.61421156
0.72333713
0.24676484
0.04430734
0.05793093
0.79260456
0.20423720
0.18227129
0.58966772
0.61017922
0.66320152
0.77263327
0.26248736
0.87268082
0.13693463
0.37375885
0.55978707
0.79254875
0.06146802
0.11493180
0.30295952
0.86896432
0.83488203
0.30381233
0.97694113
0.79610350
0.91162137
0.84880371
0.46333180
0.07252236
0.10749651
0.07754336
0.79585949
0.35426134
0.12185070
0.85379042
0.14686590
0.32608791
0.03606170
0.73653363
0.93626713
0.69926322
0.50916690
0.19875448
0.57194405
0.64610153
0.57251334
0.13173112
0.43865029
0.63398135
0.24666291
0.74160980
0.50294567
0.08154495
0.04542213
0.47988680
0.87764845
0.95704350
0.32869050
0.34098025
0.02956586
0.43618701
0.41852361
0.82542535
0.79044835
0.54037431
0.67921576
0.93731426
0.86646222
0.71527746
0.67384788
0.80272935
0.41454069
0.18301478
0.00148383
0.98648473
0.82911631
0.57399717
0.11821585
0.26776660
0.20797852
0.36487877
0.00937640
0.71092419
0.44642371
0.05479853
0.19081099
0.32407216
0.01184203
0.51950149
0.66505240
0.04140789
0.95568850
0.08357601
0.86683323
0.74613685
0.62395032
0.54604899
0.68345111
0.49041255
0.26132645
0.35729899
0.29314190
0.67586714
0.54031377
0.29462573
0.66235187
0.36943008
0.86862290
0.78056773
0.63719668
0.07660142
0.14544649
0.64657308
0.78752562
0.59187020
0.70137161
0.97833661
0.91594236
0.71321364
0.49783810
0.58099476
0.75462153
0.45352660
0.66457077
0.62145476
0.19966345
0.28852109
0.16750375
0.88311456
0.77893364
0.42883020
0.24041355
0.07207554
0.10469734
0.78072732
0.36670127
0.76704922
0.15015740
0.23532417
0.54761694
0.78735408
0.31192559
0.69306343
0.43392717
0.09945120
0.28493363
0.13529878
0.07778781
0.20087599
0.84851242
0.57562591
0.78187075
0.60313395
0.02915251
0.44644152
0.22458870
0.22881597
0.73496262
0.39209245
0.11193053
0.51389626
0.82092265
0.35234408
0.58597180
0.92562000
0.13307140
0.95267306
0.69266921
0.28322880
0.18799723
0.24028616
0.07058289
0.49992282
0.93334959
0.50451005
0.59937402
0.21828323
0.63980883
0.67716183
0.41915922
0.48832125
0.25278774
0.20102997
0.09145520
0.28194026
0.64747149
0.31604390
0.51075622
0.38243411
0.70813635
0.62268675
0.89633037
0.52905900
0.97503083
0.48230217
0.45467899
0.10810223
0.43497523
0.14734821
0.39133103
0.62297246
0.38763436
0.46191392
0.12289527
0.32098396
0.96642398
0.72226929
0.53926718
0.60623281
0.39943112
0.95842640
0.09455406
0.65221887
0.15945637
0.18600926
0.93415913
0.80692786
0.50205316
0.44491535
0.18936197
0.21018950
0.06760210
0.08569234
0.73924850
0.04263294
0.56799450
0.19392749
0.15073517
0.00296973
0.34127570
0.54206620
0.62594219
0.72891007
0.00398012
0.74883746
0.04989402
0.97040410
0.47110675
0.58916120
0.57663691
0.87053788
0.54758760
0.67119097
0.52275675
0.70704397
0.85720022
0.45691587
0.51397183
0.35925338
0.90183122
0.70333380
0.56944288
0.96943333
0.78902614
0.30869139
0.01206626
0.35702064
0.50261888
0.16280143
0.35999037
0.84389458
0.70486763
0.98593256
0.57280465
0.70884775
0.73477002
0.62269867
0.67925185
0.20587678
0.21185987
0.25588876
0.07641466
0.75944747
0.92707972
0.59917140
0.46649144
0.78427995
0.05608728
0.98046327
0.14353333
0.95791850
0.68379707
0.71297621
0.92735183
0.47282321
0.02166760
0.93941809
0.82984385
0.52428648
0.10221952
0.18983423
0.36818106
0.80708715
0.17576679
0.94098571
0.51593490
0.91053681
0.56368437
0.19518675
0.11641359
0.77554425
0.45107551
0.19282825
0.53499172
0.37815523
0.79199965
0.00148316
0.16243518
0.84808693
0.98194643
0.30596851
0.80600543
0.66574351
0.01894473
0.73335725
0.13856672
0.04061233
0.67277534
0.96841057
0.56489881
0.77499486
0.15824480
0.93307986
0.58208200
0.33401159
0.87406557
0.09801690
0.24454840
0.43774994
0.29320365
0.36096199
0.21329419
0.74427916
0.55379024
0.74828591
0.12243440
0.34578988
0.74976907
0.28486958
0.19387681
0.73171550
0.59083809
0.99988224
0.39745901
0.60978282
0.73323949
0.53602573
0.65039514
0.40601483
0.50443630
0.21529395
0.18100969
0.66268111
0.14837381
0.76309169
0.99669270
0.02243938
0.86110859
0.24124110
0.46018933
0.15431224
0.60220309
0.67348352
0.89859140
0.15599332
0.42176942
0.02102580
0.50178321
0.17153849
0.30589538
0.69566002
0.90325399
0.89673347
0.69554225
0.30071300
0.50651629
0.42878174
0.83673873
0.15691143
0.83479658
0.34117504
0.37220538
0.01580626
0.00385614
0.52057919
0.77889795
0.00054884
0.54301857
0.64000654
0.24178993
0.00320790
0.79431878
0.84399302
0.67669141
0.69291019
0.99998634
0.09846083
0.71393599
0.50176955
0.26999932
0.01983137
0.19742956
0.17325332
0.91656484
0.89297182
0.47396632
0.42308112
0.32175356
0.31070505
0.57999255
0.15655014
0.65188008
0.95219793
0.17235640
0.65573623
0.47277712
0.95125435
0.65628506
0.01579569
0.59126089
0.89807499
0.01900359
0.38557967
0.74206801
0.69569500
0.07848986
0.74205436
0.79415584
0.79242585
0.24382390
0.06415516
0.81225721
0.44125347
0.23740848
0.72882205
0.33422528
0.71137479
0.15190317
0.65597884
0.02207984
0.73189573
0.81252898
0.67395993
0.68409366
0.98488538
0.32969615
0.15687077
0.93613973
0.98598121
0.17266646
0.52740061
0.88405621
0.19167005
0.91298029
0.62612422
0.88736505
0.99147015
0.36817858
0.68152089
0.78389599
0.61200248
0.74567605
0.59615321
0.05325595
0.98308453
0.32497526
0.38748123
0.69445932
0.47687843
0.04346007
0.71653916
0.20877416
0.85598905
0.39049909
0.89286781
0.84087443
0.72019524
0.04973859
0.77701416
0.70617645
0.22240505
0.30441477
0.59023265
0.41407510
0.21739506
0.21635687
0.30144016
0.20886520
0.58453545
0.98296105
0.99276119
0.19653793
0.72863710
0.58891440
0.24979387
0.71172162
0.91388966
0.63727511
0.40618094
0.39076809
0.68073518
0.12272010
0.59954224
0.53672423
0.51321919
0.49241006
0.37759867
0.23341442
0.54214864
0.15461282
0.93959087
0.76455370
0.45902759
0.52982352
0.17862880
0.67642265
0.74618039
0.48006896
0.88528785
0.33071584
0.46303000
0.87804904
0.52725377
0.19166710
0.46696344
0.77704764
0.90338872
0.38085310
0.41432275
0.30956966
0.77162119
0.09505793
0.43228977
0.37116343
0.63178216
0.94550896
0.86357349
0.00938083
0.17892338
0.40572213
0.16399365
0.11851425
0.17027583
0.62302124
0.64833777
0.34890463
0.29944389
0.39451816
0.82897358
0.18473174
0.72523400
0.29200358
0.06278079
0.25248777
0.48367068
0.52974423
0.02953541
0.38705941
0.91059733
0.44385816
0.69662907
0.68221851
0.53891609
0.12891884
0.05338194
0.17069825
0.07442779
0.91695543
0.18007908
0.25335117
0.32267756
0.34407273
0.37186542
0.49295339
0.96709397
0.02020319
0.84185802
0.26653786
0.41472135
0.67083160
0.45126960
0.13995536
0.96283518
0.51405039
0.39244313
0.44650587
0.04379462
0.42197854
0.83356527
0.95439195
0.86583670
0.53019434
0.63661046
0.40475279
0.65911318
0.68999240
0.57545104
0.73354097
0.60694784
0.75553012
0.98689214
0.92962540
0.09960284
0.35875755
0.42257879
0.06669681
0.37896074
0.26443681
0.33323467
0.79368210
0.93526840
0.78450427
0.93363745
0.89810359
0.29855466
0.32608058
0.34460945
0.34234928
0.74805912
0.17817473
0.29674122
0.61389583
0.70836907
0.93335168
0.01864862
0.36748224
0.62334409
0.59409966
0.10102321
0.23029192
0.34962977
0.08791534
0.15991732
0.44923261
0.44667290
0.58249611
0.51592942
0.82563364
0.84693292
0.84916409
0.61931574
0.78220132
0.63366837
0.55295319
0.68030491
0.93222303
0.87903377
0.02491436
0.27457231
0.62709289
0.20308909
0.57131354
0.24098872
0.91145815
0.50466522
0.25963733
0.27894039
0.12800930
0.85373699
0.37996360
0.35830123
0.20336676
0.46787894
0.51821855
0.65259937
0.91455184
0.10071466
0.16852880
0.74018548
0.94764758
0.01769289
0.35950122
0.72984890
0.65136126
0.91245440
0.41015380
0.58358429
0.79148817
0.43506816
0.85815660
0.41858106
0.63815725
0.42947014
0.65956978
0.54961540
0.93413535
0.91920711
0.82855579
0.06214466
0.77294410
0.20851939
0.42044589
0.97631086
0.67639834
0.93866444
0.62891024
0.59095017
0.03937910
0.79743903
0.33113565
0.98702667
0.81513192
0.69063687
0.71687557
0.46649318
0.60309127
0.12702937
0.05007747
0.39457945
0.56209754
0.90823408
0.81316051
0.20025479
0.33770421
0.47273029
0.74987019
0.27183956
0.39193741
0.57842598
0.33398422
0.16488151
0.78694538
0.75443011
0.14119237
0.46334371
0.69309454
0.77010260
0.05429389
0.73247364
0.56754164
0.38542954
0.71950031
0.38267356
0.07606641
0.43637588
0.84916674
0.67915768
0.56340526
0.89924422
0.07373713
0.12550279
0.80747829
0.88689764
0.32575758
0.14518250
0.35962793
0.07562777
0.41702207
0.75156534
0.65405375
0.75100629
0.91644685
0.44099913
0.50543640
0.05763921
0.90434285
0.19853094
0.82774182
0.95863673
0.93100458
0.39528345
0.34406627
0.65050490
0.77795701
0.42013268
0.08688078
0.62712375
0.09929037
0.65028603
0.52636797
0.17302750
0.77578883
0.33384626
0.05992514
0.10154641
0.47902876
0.41955307
0.17717418
0.89605083
0.17111841
0.83122793
0.64705712
0.08756526
0.27222706
0.15249352
0.14520447
0.17656991
0.35102446
0.97294629
0.13520664
0.28202904
0.36822974
0.47927291
0.93253394
0.14618675
0.89940559
0.01941472
0.77331051
0.99869596
0.66970075
0.29967848
0.17172345
0.44548958
0.63352474
0.23164859
0.54703599
0.11255350
0.65120166
0.72421016
0.00860433
0.82232007
0.55543810
0.65566145
0.90988533
0.82766516
0.80815497
0.05508980
0.00423507
0.15917943
0.02803608
0.13944171
0.44120847
0.39626582
0.61871462
0.37374241
0.54245257
0.51812021
0.39315713
0.31576308
0.51681617
0.06285789
0.61544156
0.68853963
0.50834747
0.24896630
0.92018822
0.05538345
0.36151980
0.57138988
0.77959362
0.37012413
0.39370995
0.33503171
0.02578558
0.30359528
0.16269687
0.83394055
0.35868508
0.16693194
0.99311998
0.38672116
0.30637364
0.43432845
0.78298698
0.92508826
0.80807087
0.32543956
0.44320847
0.20122800
0.64120264
0.96002465
0.26408589
0.25664420
0.64856427
0.77243336
0.50561050
0.56875249
0.82781681
0.86713030
0.14014237
0.60741043
0.23725443
0.53385232
0.94244214
0.26304001
0.83744760
0.10513901
0.09698057
0.19613268
0.27207095
0.09010055
0.58285384
0.57844459
0.52442900
0.36584082
0.50353285
0.33249987
0.69128038
0.94674133
0.53372787
0.33248302
0.90676597
0.79781376
0.58912722
0.55533024
0.57024711
0.09473771
0.12408273
0.39806392
0.96186801
0.26422511
0.00547435
0.19912244
0.79807743
0.94791649
0.46216245
0.63552503
0.05305550
0.55914302
0.83165771
0.32512645
0.64924357
0.41451155
0.90357104
0.17367257
0.78035238
0.40710390
0.50617244
0.47163276
0.35384522
0.03990031
0.80411578
0.26061120
0.83771407
0.39324299
0.81594144
0.40796118
0.48798071
0.94002418
0.80602510
0.44984872
0.20424928
0.81149945
0.64897115
0.00232671
0.75941594
0.11113361
0.63785174
0.81247144
0.67027663
0.46950946
0.13759789
0.31952019
0.88402101
0.04116893
0.49319276
0.66437338
0.44827283
0.99936520
0.13600614
0.80211805
0.03926551
0.94012192
0.06272925
0.87697957
0.33336491
0.87867069
0.28494075
0.82134562
0.81869487
0.09096586
0.27119433
0.02294415
0.90246531
0.92016549
0.02527086
0.66188125
0.03129909
0.66312261
0.47435269
0.70157572
0.13263206
0.61195058
0.02109592
0.01665307
0.65311951
0.51428868
0.68102645
0.10139234
0.51365388
0.81703259
0.90351040
0.55291938
0.75715451
0.96623965
0.42989896
0.09051942
0.84491034
0.71483971
0.91186503
0.66360521
0.80580556
0.18305936
0.68654936
0.70827087
0.10322485
0.71182022
0.37015212
0.13452394
0.37494283
0.84450481
0.83609966
0.50757489
0.45645539
0.85719558
0.52422796
0.10957490
0.37148426
0.20525441
0.21096724
0.88513813
0.02228700
0.11447764
0.43805752
0.77944151
0.08071728
0.86795647
0.86996092
0.92562762
0.58279618
0.78182596
0.58923283
0.38860175
0.96488532
0.27578219
0.09687262
0.06811017
0.98760242
0.46702474
0.20263411
0.36254524
0.31152955
0.03873377
0.87012013
0.76798494
0.89592935
0.39434809
0.87755984
0.26741361
0.59960249
0.08852708
0.15255174
0.62188949
0.20300472
0.59060926
0.40133100
0.28372200
0.45856573
0.27129192
0.20934962
0.04136192
0.05311788
0.79858245
0.42996366
0.01800320
0.07436465
0.52683628
0.08611336
0.06196706
0.99386102
0.28874748
0.42451230
0.30539057
0.32748125
0.29463244
0.07337551
0.22341060
0.68898052
0.95093534
0.49082421
0.28858302
0.03946242
0.64337596
0.91047251
0.24246714
0.23398522
0.31180351
0.52618914
0.69255095
0.58309543
0.73553876
0.73391287
0.63621331
0.53412122
0.16387653
0.65421650
0.60848587
0.69071282
0.74032987
0.67045293
0.68457384
0.02907734
0.09496523
0.98996441
0.35655859
0.38959767
0.06333991
0.57996920
0.07857819
0.01427526
0.07079341
0.36716121
0.05373768
0.71416937
0.27763372
0.29620482
0.94815459
0.58943723
0.82239396
0.64070554
0.17253266
0.55793273
0.37461841
0.80874597
0.09205394
0.53849495
0.46296247
0.70053981
0.22920777
0.20329234
0.37099274
0.91378160
0.23236969
0.46595797
0.90374601
0.58892828
0.85555563
0.96708593
0.16889748
0.93413382
0.98136118
0.23969089
0.30129503
0.03509886
0.95386026
0.57892875
0.33130368
0.90201485
0.16836598
0.15369765
0.54272040
0.34089864
0.71163037
0.91733881
0.14964461
0.80368432
0.45583376
0.61260708
0.50422413
0.68504152
0.81589942
0.87521686
0.59882313
0.04826911
0.34117483
0.50256914
0.63719739
0.19673046
0.46965507
0.80609487
0.13086429
0.45101625
0.04578577
0.43215932
0.48611511
0.99964603
0.01108807
0.81741880
0.90166088
0.17945404
0.97111644
0.44438128
0.52035268
0.68274681
0.36172009
0.66999729
0.48643113
0.81755385
0.28260437
0.99065526
0.50259537
0.09850380
0.86587212
0.10141850
0.14677291
0.20704694
0.60398764
0.78397030
0.40377741
0.07364271
0.59006518
0.53464169
0.52465896
0.63585094
0.96680101
0.01077407
0.63549697
0.97788908
0.82819287
0.53715785
0.15734312
0.79930931
0.98153913
0.67769580
0.48205612
0.34325922
0.34769309
0.96848726
0.16081306
0.63029747
0.95914251
0.66340843
0.72880126
0.82501463
0.76482693
0.87557417
0.03206157
0.36881457
0.65954447
0.43583898
0.44245728
0.24960965
0.97048067
0.96711624
0.88546059
0.93728168
0.97789031
0.52095756
0.91517076
0.80608318
0.05811541
0.07251388
0.60539249
0.03965454
0.75020968
0.08744861
0.38291376
0.09790277
0.05593587
0.54372682
0.72820024
0.01507838
0.20713525
0.45700150
0.84009301
0.97196219
0.33257567
0.87215458
0.34077676
0.99212014
0.30799356
0.78323404
0.24172979
0.27847423
0.75035028
0.12719038
0.21575591
0.72824060
0.64814794
0.13092666
0.53432377
0.70626335
0.20344054
0.13971626
0.74591789
0.95365022
0.22716487
0.12883165
0.05155299
0.28310074
0.67255847
0.77975323
0.29817912
0.87969373
0.23675472
0.13827212
0.85165591
0.56933039
0.01042670
0.19243267
0.56145053
0.31842026
0.97566672
0.80318032
0.59689449
0.72601700
0.93037070
0.81265040
0.45425760
0.57851863
0.94357706
0.98858137
0.28478198
0.14701760
0.12829763
0.03069987
0.10066782
0.35546250
0.15953152
0.15222081
0.63856324
0.83208999
0.93197404
0.93674236
0.71178372
0.16872876
0.07501448
0.56343963
0.73805915
0.08544119
0.75587231
0.29950969
0.40386145
0.73153903
0.10269001
0.00075593
0.45755603
0.03306070
0.81340633
0.91181363
0.61157934
0.75698340
0.90039500
0.89636132
0.90400100
0.02869263
0.92706119
0.00466882
0.38415514
0.08659271
0.15688964
0.02271838
0.91868271
0.08886367
0.95946074
0.63046643
0.25759244
0.03447523
0.19390606
0.99565159
0.11991641
0.94977837
0.29516127
0.52377786
0.68131739
0.39785128
0.52453379
0.13887342
0.43091198
0.33794013
0.05068705
0.04249132
0.09492352
0.95108205
0.93885264
0.99892453
0.97977468
0.86591383
0.00359335
0.36392982
0.95250654
0.16048299
0.38664820
0.87118925
0.24934666
0.34610894
0.50165568
0.50693910
0.38058417
0.69556174
0.50259068
0.50050058
0.64534010
0.79775196
0.02427844
0.32665749
0.19560324
0.54881223
0.46553091
0.62651522
0.88675235
0.51621796
0.66900654
0.98167588
0.46730001
0.60785917
0.98060040
0.44707469
0.47377300
0.98419375
0.81100451
0.42627954
0.14467674
0.19765272
0.29746879
0.39402340
0.54376166
0.79912447
0.90096250
0.92434583
0.49468621
0.40355318
0.42484641
0.14002631
0.20130514
0.44912484
0.46668380
0.39690838
0.99793707
0.93221471
0.02342360
0.88468942
0.44843268
0.69243014
0.86636530
0.91573269
0.30028931
0.84696570
0.36280738
0.77406232
0.83115945
0.17381190
0.20034186
0.97583620
0.37146461
0.49781065
0.36985960
0.91522627
0.29693512
0.27082210
0.83957210
0.79162133
0.67437529
0.26441850
0.93164764
0.87568043
0.71354334
0.39833144
0.27258881
0.71148041
0.33054615
0.29601242
0.59616983
0.77897883
0.98844256
0.46253513
0.69471151
0.28873187
0.30950083
0.05751889
0.06279419
0.14066028
0.23133079
0.26313604
0.11649648
0.60279540
0.76094670
0.48635608
0.51802167
0.05788182
0.75717818
0.35759376
0.84950314
0.43155347
0.62201227
0.78115078
0.30723390
0.33555561
0.17948222
0.57982271
0.04703602
0.51002837
0.87583512
0.64320585
0.28900719
0.86427768
0.10574098
0.98371871
0.15300955
0.41524181
0.04123760
0.21580374
0.55590210
0.27256839
0.47893978
0.67239858
0.87536379
0.23988648
0.15875466
0.39338546
0.29776829
0.91593284
0.75097923
0.14727144
0.34748631
0.37299149
0.92842222
0.65472021
0.70854710
0.10790443
0.23454291
0.75558312
0.61793280
0.11037804
0.39878898
0.90694000
0.97465572
0.50452996
0.89065870
0.12766527
0.91977178
0.93189631
0.34346901
0.47567388
0.20446470
0.82240879
0.14807246
0.07982849
0.06229526
0.30682712
0.47321395
0.36006356
0.22275997
0.22419318
0.50733499
0.57024628
0.59718467
0.43575721
0.22496649
0.30573177
0.54366164
0.45950940
0.06131490
0.16159445
0.56988744
0.46010388
0.06853444
0.54454315
0.96463384
0.95919315
0.67220842
0.88440562
0.89108945
0.01567743
0.36007950
0.09555415
0.83808621
0.50815196
0.17538264
0.90038148
0.81497908
0.64859659
0.26044503
0.03773904
0.87278977
0.76778003
0.60798532
0.46997444
0.20353724
0.83295181
0.77570621
0.74719888
0.29246121
0.83702111
0.90879333
0.86234864
0.29712499
0.97732777
0.40689180
0.26175882
0.93652092
0.07910022
0.14616444
0.82761037
0.09477764
0.50624394
0.92316452
0.93286386
0.01439589
0.09854716
0.83324533
0.82937497
0.74714375
0.09369037
0.86711402
0.61993352
0.86147039
0.47509934
0.08990796
0.06500763
0.30805114
0.86561417
0.81220652
0.60051235
0.70263528
0.72099985
0.46286099
0.99976027
0.69832762
0.86975279
0.26151909
0.63484854
0.94885301
0.40768353
0.46245891
0.04363065
0.91392747
0.38562343
0.97649451
0.92832337
0.48417060
0.80973984
0.75769834
0.23131435
0.90343021
0.62481235
0.85124787
0.76490060
0.09991169
0.94115583
0.82990824
0.40796283
0.80677000
0.64211475
0.00847518
0.50940529
0.36311460
0.47133618
0.50916555
0.06144222
0.34108897
0.77068465
0.69629076
0.28994198
0.17836818
0.15874967
0.33357263
0.09229565
0.54437310
0.31006714
0.02061902
0.02854369
0.11980698
0.77831736
0.25985804
0.02323719
0.40312971
0.11110591
0.78813780
0.50304140
0.05226174
0.61804603
0.91100423
0.85903175
0.26016079
0.91947941
0.36843703
0.62327538
0.39081559
0.87760259
0.68471760
0.73190456
0.64828723
0.38100836
0.02184654
0.82665541
0.53975802
0.35541917
0.91895107
0.08413112
0.66548631
0.93957008
0.11267481
0.78529329
0.71788744
0.37253286
0.80853048
0.12101715
0.48363877
0.59666828
0.62405854
0.53590051
0.21471431
0.53506278
0.39493226
0.47487510
0.45454219
0.76336930
0.09815048
0.84535778
0.64097188
0.78286808
0.57726234
0.28925912
0.16387644
0.59910889
0.11591453
0.70363446
0.95452806
0.03486560
0.78776558
0.62001437
0.97443568
0.90044039
0.40530766
0.69232312
0.27297325
0.21383814
0.81334027
0.75661202
0.81050642
0.43739881
0.29251254
0.02522074
0.97246159
0.68744480
0.50009584
0.42700378
0.45081410
0.59824632
0.27236156
0.09178598
0.38111440
0.84962391
0.38104510
0.54499084
0.44873279
0.49695963
0.24862530
0.40326085
0.53182523
0.03639088
0.02327521
0.50626091
0.93683127
0.42858287
0.19858403
0.20980452
0.64242102
0.01192430
0.96641655
0.45292744
0.44932311
0.25892908
0.47814818
0.42178470
0.94637388
0.97824402
0.84878848
0.39718798
0.57649034
0.12115004
0.48897396
0.95760474
0.97077395
0.87001906
0.50259558
0.41950674
0.36697868
0.75122088
0.82276759
0.89880391
0.78761175
0.84604280
0.40506482
0.72444303
0.27462567
0.60364885
0.93424755
0.91704669
0.61557315
0.90066410
0.36997413
0.06489626
0.15959318
0.84812231
0.48668097
0.10596706
0.82636633
0.33546945
0.50315504
0.40285667
0.45661949
0.99212899
0.36046140
0.42739344
0.86214805
0.86305698
0.84690018
0.22912673
0.61427786
0.66966777
0.12793064
0.40188962
0.51571057
0.53299546
0.12633264
0.79033624
0.13664431
0.06058019
0.70738293
0.75221746
0.96124429
0.07735707
0.81711372
0.12083747
0.92547938
0.30379469
0.22680453
0.75184571
0.63926414
0.72995957
0.15470237
0.09588363
0.72208856
0.51516378
0.52327707
0.58423661
0.37822076
0.37017725
0.81336334
0.99249862
0.03984502
0.94129399
0.39438824
0.55555559
0.47428945
0.52072088
0.34589184
0.61093377
0.58130107
0.05327477
0.36315123
0.54254536
0.13063184
0.18026495
0.66338283
0.05611122
0.48405964
0.89018736
0.80795692
0.12332378
0.62014692
0.96265930
0.21920741
0.34223548
0.47782307
0.74248448
0.92647209
0.85604384
0.11266173
0.73983543
0.84854246
0.15250676
0.68112942
0.24293069
0.70806235
0.15541887
0.76365157
0.05395419
0.76635264
0.34495265
0.10722896
0.12950386
0.88749801
0.23786080
0.30976881
0.55088084
0.29397201
0.79382845
0.44106819
0.10192893
0.91715223
0.06121511
0.06458823
0.13635964
0.40345060
0.54241130
0.87884412
0.32992269
0.39845514
0.99150585
0.06975812
0.24699760
0.14401261
0.75088754
0.48992829
0.85207496
0.90630641
0.25357987
0.90602915
0.67265905
0.59853251
0.01325810
0.80216291
0.48603052
0.25111890
0.11193172
0.03691135
0.54509091
0.90576018
0.47797955
0.64701984
0.82291241
0.53919466
0.71160807
0.95927205
0.94264525
0.25401938
0.83811616
0.27256794
0.65247452
0.82962202
0.34232606
0.89947212
0.97363463
0.09321360
0.38940041
0.82570958
0.99952001
0.64298028
0.73173873
0.67217905
0.24151279
0.74499683
0.47434196
0.72754331
0.99611573
0.58627369
0.76445466
0.54120664
0.49203387
0.24243421
0.18822649
0.31494627
0.78162887
0.89983456
0.27421832
0.72427412
0.15385394
0.11233448
0.99684206
0.80632846
0.94195650
0.33916812
0.70580058
0.91559113
0.43238171
0.09520099
0.74130071
0.43190172
0.73818127
0.47303944
0.10408077
0.97969406
0.21803627
0.57842273
0.70723737
0.21415201
0.16469642
0.47169204
0.75535865
0.65673029
0.71412624
0.94358514
0.97167656
0.49575511
0.84341971
0.24589488
0.22002923
0.99727365
0.35822936
0.21687129
0.80360211
0.30018586
0.55603941
0.50940270
0.21577699
0.98842112
0.60460369
0.95707770
0.42032284
0.34278496
0.43011714
0.52440361
0.32247903
0.64815342
0.10282635
0.02971640
0.86230542
0.26752277
0.50140843
0.61766408
0.92425305
0.21553468
0.56124922
0.89592961
0.71128979
0.40466893
0.14182449
0.93131902
0.40194258
0.50005385
0.14819031
0.20554469
0.80023972
0.70422972
0.71494739
0.01601671
0.69265085
0.31955108
0.97309441
0.11297369
0.66233604
0.40321155
0.63737730
0.98481507
0.05136496
0.74020365
0.01453147
0.91367039
0.00772642
0.51593990
0.53133446
0.93197947
0.73147458
0.09258368
0.82790908
0.44276437
0.49725261
0.96973357
0.37408339
0.89919519
0.46978742
0.52227370
0.10473988
0.27002714
0.22650343
0.81968727
0.28604384
0.91915428
0.13923835
0.25913825
0.03212797
0.80157439
0.66234980
0.66950527
0.78638946
0.71371476
0.40970892
0.80092092
0.62738515
0.41743534
0.31686083
0.15871961
0.34941480
0.04833541
0.25130329
0.17732388
0.49109977
0.74855591
0.14705745
0.86518316
0.64775110
0.61684487
0.38745687
0.75249098
0.88687200
0.61396029
0.57217825
0.17291585
0.53311457
0.71141659
0.43205410
0.56524254
0.51299098
0.09440389
0.23474781
0.29938044
0.80811865
0.64445673
0.10030136
0.43550380
0.06189206
0.41716219
0.59422341
0.41130686
0.46549760
0.84552670
0.58863074
0.95659737
0.59408261
0.73568819
0.82178053
0.24183370
0.35253306
0.20923740
0.99432468
0.23940506
0.82319769
0.56650293
0.41232090
0.35631226
0.27791952
0.84437500
0.92155479
0.79091050
0.93877889
0.15630260
0.09029094
0.74689754
0.80075933
0.19059231
0.18240134
0.86265139
0.60775450
0.77662475
0.27395826
0.07325209
0.62215145
0.86258900
0.02984946
0.21623406
0.59827719
0.85162999
0.45806776
0.95081025
0.06086739
0.45239244
0.19021530
0.88406508
0.01889537
0.60253621
0.24037734
0.29681489
0.44691120
0.16193213
0.08772539
0.38569009
0.31823474
0.17801634
0.13258764
0.11899406
0.36860864
0.31498898
0.98164546
0.97636314
0.09161372
0.25560371
0.04961523
0.71376517
0.11819272
0.07946469
0.92999923
0.71646991
0.93109469
0.38806699
0.66728015
0.99196208
0.84045943
0.85749546
0.87602716
0.85935480
0.46003167
0.11640450
0.15616969
0.90694287
0.27833663
0.24389509
0.29263297
0.59657137
0.42191142
0.42522060
0.71556543
0.79052006
0.74020958
0.69721089
0.76688320
0.83182330
0.95281461
0.81649844
0.54558847
0.07100732
0.89596313
0.47558770
0.78747723
0.82705782
0.86365468
0.45475738
0.81901990
0.70411412
0.31225284
0.69504706
0.56346892
0.77228451
0.81145156
0.71963861
0.67922738
0.08978819
0.96353369
0.97186034
0.68635956
0.38544512
0.39708094
0.40192499
0.17596518
0.13729052
0.09913588
0.94284838
0.96911382
0.05195049
0.75934682
0.51470229
0.12295781
0.65530995
0.99028998
0.91043504
0.48236777
0.85394467
0.36519242
0.30138767
0.55805878
0.67744526
0.99643473
0.12152770
0.44972977
0.80788629
0.84116631
0.12895715
0.89767449
0.80470001
0.10081749
0.58403405
0.19014512
0.49789843
0.98595904
0.36611030
0.63518895
0.08509492
0.30895868
0.60430277
0.13704541
0.06830550
0.11900506
0.26000322
0.72361545
0.10929504
0.17043825
0.20598322
0.96323971
0.53563067
0.50737090
0.52129850
0.21307593
0.50380563
0.64282620
0.66280570
0.31169192
0.48399251
0.79176285
0.20936641
0.28869251
0.89258034
0.79340046
0.47883764
0.39047877
0.77935950
0.84494794
0.02566772
0.86445442
0.15390662
0.62997050
0.00149982
0.22221212
0.74897556
0.26150304
0.94582757
0.85827060
0.43194129
0.15181080
0.82151031
0.96757196
0.65918170
0.34280881
0.18064790
0.16298733
0.98563501
0.84345360
0.47467925
0.46962752
0.63521645
0.68404566
0.75832003
0.52779678
0.47744612
0.23715767
0.91827555
0.25680561
0.08210560
0.94394328
0.12126003
0.23601222
0.57391377
0.12275985
0.45822434
0.32288933
0.38426289
0.40405191
0.18115993
0.81620418
0.55586271
0.00267025
0.78377615
0.21504441
0.34547906
0.96442404
0.37803173
0.33111406
0.80787764
0.85271098
0.80074158
0.44309408
0.53675664
0.55906161
0.97089087
0.01420275
0.79621928
0.88916642
0.27100837
0.87832488
0.83310969
0.39226839
0.11433709
0.40702347
0.51502824
0.57256143
0.72991280
0.89929114
0.97661335
0.91107273
0.71549532
0.53247606
0.91374298
0.49927146
0.74752046
0.25922203
0.46369551
0.12555219
0.59033609
0.27157315
0.97826317
0.39107767
0.71466723
0.51501981
0.95013928
0.68555809
0.52922257
0.74635856
0.57472451
0.80023093
0.62468343
0.40783421
0.19249932
0.73902053
0.81485768
0.70752757
0.31158196
0.54477047
0.60681870
0.28819531
0.45584320
0.32231402
0.82067136
0.36958618
0.82158549
0.56819182
0.62880821
0.28528099
0.69374402
0.21914430
0.55685414
0.67200719
0.61022197
0.27152137
0.18702700
0.56036125
0.95707946
0.71624956
0.30671981
0.53180398
0.51648050
0.93140325
0.93963818
0.70897982
0.67042378
0.75449586
0.41650739
0.98200574
0.29926633
0.02332609
0.27020105
0.75510953
0.34564011
0.09087241
0.12469571
0.16722560
0.65906423
0.75350392
0.45250659
0.35280825
0.97264822
0.00936073
0.02481543
0.58287019
0.28088210
0.21184243
0.14323145
0.23796156
0.92809200
0.44995126
0.76976553
0.44457249
0.38135451
0.70940372
0.15355231
0.05177828
0.46389957
0.57005970
0.03378402
0.76316590
0.59338579
0.30398507
0.51827544
0.93902590
0.39485747
0.64297115
0.10625150
0.05392171
0.39647507
0.55875809
0.40672995
0.36912329
0.56811882
0.43154539
0.95199348
0.84900092
0.64338782
0.09522493
0.08696248
0.57147982
0.54517618
0.85672801
0.01605231
0.92653069
0.56613173
0.16960462
0.97830897
0.03003130
0.73966432
0.01209299
0.79319720
0.33305010
0.31607806
0.31147264
0.27207601
0.71093553
0.95444379
0.37832751
0.76485724
0.35091886
0.93708560
0.17158719
0.72004215
0.50520442
0.60313258
0.67203563
0.35420534
0.24652040
0.76726055
0.44116782
0.81800021
0.31243674
0.29789583
0.83405252
0.23896743
0.86402755
0.00365714
0.21727640
0.89405885
0.74332145
0.22936940
0.68725606
0.07637156
0.54544746
0.99872870
0.34844756
0.25638299
0.95317249
0.72677507
0.02124023
0.30409135
0.66386067
0.19282742
0.02413350
0.16906509
0.79596000
0.69616912
0.52327043
0.04248040
0.46342968
0.96443824
0.86048061
0.77586641
0.26233407
0.69453313
0.01483384
0.12636162
0.69819026
0.23211024
0.02042048
0.44151171
0.46147964
0.70767653
0.51788327
0.00692710
0.70640523
0.86633083
0.26331009
0.65957772
0.59310590
0.28455032
0.96366907
0.25696657
0.47737774
0.98780257
0.42603165
0.27333774
0.68397170
0.94930208
0.31581813
0.14740137
0.91374032
0.17629874
0.92326779
0.17607439
0.87083187
0.93810163
0.30243602
0.56902213
0.17021187
0.32285649
0.01053385
0.63169151
0.03053303
0.52841712
0.63861861
0.73693826
0.39474795
0.90192869
0.39651598
0.98785385
0.18647901
0.36018505
0.24482041
0.66385675
0.34798762
0.67085207
0.93719448
0.03195932
0.62015414
0.25301262
0.17936069
0.53389447
0.42931136
0.10262848
0.70996886
0.30014323
0.04073011
0.01240488
0.86916536
0.21094198
0.33526137
0.87969920
0.84263349
0.36579440
0.40811632
0.48125209
0.10273265
0.80286427
0.38318079
0.49924863
0.79071811
0.56965979
0.85943368
0.03553853
0.23351654
0.20742131
0.70639059
0.17071102
0.23938063
0.32654474
0.42372364
0.41874132
0.86043920
0.85303499
0.52136980
0.57040807
0.15317822
0.56209990
0.58281294
0.02234358
0.77304188
0.91807431
0.90204278
0.61567537
0.28386871
0.31015911
0.09692746
0.38660136
0.11302337
0.48010825
0.88584999
0.90374149
0.04976804
0.74528368
0.93928001
0.28328458
0.95270498
0.64567060
0.45399560
0.19208561
0.97221534
0.87771924
0.61082693
0.83265454
0.73075423
0.13219672
0.40306261
0.88393245
0.69429663
0.98587555
0.90627603
0.46733851
0.90394987
0.80831881
0.08301388
0.18781858
0.11847792
0.17994134
0.57441994
0.23150129
0.66004959
0.46026993
0.13524278
0.70981763
0.20555361
0.07452279
0.99310221
0.15825859
0.72019339
0.44709781
0.35034420
0.69240873
0.32481705
0.96117113
0.52506328
0.05557128
0.09336785
0.92812589
0.93950373
0.78766448
0.91400144
0.84577976
0.25500298
0.81795131
0.65409857
0.33801686
0.00576988
0.77257649
0.51795820
0.58018982
0.00407778
0.17800779
0.04045975
0.13932056
0.88782542
0.24601336
0.21384335
0.88092763
0.40427194
0.93403675
0.32802545
0.75461614
0.62644548
0.65284250
0.71578727
0.15150876
0.70841377
0.80915512
0.07963465
0.64791750
0.59681959
0.99363609
0.49369726
0.85182258
0.81158740
0.14779584
0.18983944
0.81735728
0.92037233
0.70779764
0.39754710
0.92445012
0.88580543
0.43800685
0.06377068
0.77363085
0.68402021
0.27761403
0.65455848
0.08829215
0.21165078
0.98258393
0.84290830
0.83809626
0.63542642
0.55869556
0.98960503
0.34384020
0.36785068
0.06923967
0.99175770
0.96467028
0.06287576
0.48545496
0.81649285
0.87446316
0.63325080
0.00633229
0.69182044
0.55362313
0.71412993
0.08936755
0.47807325
0.59993536
0.52737440
0.54184392
0.37356621
0.21139461
0.81945796
0.02812469
0.29968676
0.03110874
0.01070862
0.14259506
0.86920500
0.64613504
0.70129062
0.85881003
0.98997524
0.06914130
0.92804970
0.98173294
0.03381158
0.99092547
0.46718791
0.85030443
0.86538863
0.10043871
0.85663672
0.55720907
0.65406184
0.57076665
0.64657662
0.13213509
0.17070201
0.17395102
0.67397901
0.54426822
0.38534563
0.49343697
0.57239291
0.68503239
0.52454570
0.58310153
0.82762744
0.39375071
0.22923657
0.52891806
0.25256073
0.21921181
0.59805936
0.18061043
0.20094475
0.63187094
0.17153590
0.66813265
0.48217537
0.03692453
0.76857136
0.33881209
0.59413360
0.42263320
0.90957874
0.24071022
0.55476829
0.08028075
0.41466124
0.22874730
0.62454897
0.80000687
0.72218426
0.19694188
0.48503926
0.24672997
0.78004340
0.31266670
0.64048067
0.00927997
0.84158476
0.89304141
0.22849178
0.43964412
0.07365184
0.42943653
0.07151506
0.24518774
0.09756918
0.55369043
0.28211227
0.86614054
0.89250252
0.87624587
0.28877374
0.80208126
0.11695609
0.84354203
0.88236202
0.53161734
0.07228932
0.50691099
0.33162421
0.79447359
0.70385286
0.81666346
0.04120355
0.48389627
0.12933016
0.68168423
0.49317624
0.97091492
0.57472563
0.72166802
0.41055905
0.64837747
0.15110454
0.48207411
0.89356521
0.24867372
0.03576454
0.17567748
0.11481426
0.92826706
0.05192335
0.40358800
0.73034832
0.16887944
0.24713003
0.61271033
0.70049678
0.31941935
0.11962132
0.03212099
0.11389294
0.82347418
0.84878445
0.15509649
0.30737045
0.97811462
0.83678072
0.80054669
0.94902954
0.41150635
0.52221470
0.35958858
0.05988382
0.67331925
0.84166269
0.95344903
0.92199297
0.87742723
0.12912651
0.03680724
0.80569428
0.18104986
0.44039524
0.53604260
0.34992930
0.68752527
0.14875293
0.05042608
0.00694462
0.26837425
0.08254707
0.12083756
0.09184843
0.93133153
0.27593405
0.39921888
0.90944614
0.11271477
0.19976556
0.85847568
0.52422112
0.72198027
0.21806426
0.58410495
0.39529952
0.05972695
0.53755398
0.31729249
0.93715418
0.66668049
0.35409973
0.74284846
0.84773035
0.79449497
0.27889106
0.19765966
0.48202024
0.42764399
0.24808574
0.48896486
0.69601824
0.33063281
0.60980242
0.78786667
0.26196434
0.88573648
0.18708554
0.17141048
0.99845125
0.38685111
0.02988616
0.52267237
0.10883137
0.24795043
0.10677731
0.50413089
0.30767738
0.64433129
0.82142338
0.24483156
0.31101179
0.17552310
0.98768002
0.15874214
0.97001807
0.26657108
0.35640179
0.45203831
0.69421507
0.60448753
0.94100317
0.39023331
0.93512035
0.55080560
0.17809998
0.19708468
0.43654207
0.36518552
0.36849517
0.43499332
0.75203663
0.39838133
0.95766569
0.86086800
0.64633175
0.06444300
0.36499889
0.95400913
0.70877429
0.18642227
0.19884070
0.01978608
0.36194537
0.18652072
0.17852822
0.33196344
0.45309180
0.53493001
0.78400175
0.14730687
0.13941754
0.72500493
0.53754019
0.07453789
0.27581053
0.71564016
0.27162257
0.71235260
0.08082568
0.64011774
0.14734591
0.83286231
0.03849907
0.10501160
0.69373031
0.68483082
0.16945460
0.05872919
0.63883995
0.87822889
0.24515146
0.83768065
0.89801497
0.60709683
0.02420137
0.07654319
0.93906027
0.47729317
0.61147320
0.72306203
0.62460004
0.75089074
0.44806696
0.16214023
0.82542863
0.72387748
0.87778039
0.09705121
0.43623008
0.95860607
0.73716895
0.58357599
0.79146838
0.77566802
0.68858759
0.48519869
0.46049884
0.85804219
0.54392788
0.09933879
0.73627108
0.78907934
0.93701944
0.63428606
0.39617617
0.96122081
0.71082924
0.33523644
0.43851397
0.32230244
0.05829847
0.06311401
0.07319319
0.50636543
0.22525424
0.89862182
0.23024291
0.10303463
0.99567303
0.66647299
0.06164070
0.73284197
0.25004898
0.85310908
0.50850999
0.93863658
0.33830777
0.96900882
0.79667877
0.88223565
0.06834761
0.53294985
0.67131499
0.00536705
0.16723591
0.06749116
0.96658786
0.87806515
0.40272761
0.40510183
0.20036760
0.46102608
0.46821584
0.27356078
0.96739151
0.69347008
0.17218260
0.19763442
0.79650471
0.16785563
0.86410741
0.85814541
0.90069760
0.11415639
0.71125449
0.40920759
0.05279297
0.04956226
0.37821641
0.84947174
0.93179791
0.44656402
0.38242159
0.60311290
0.45193108
0.54965750
0.67060406
0.41851893
0.42772265
0.07333167
0.82362076
0.62809025
0.53435775
0.29183660
0.90165103
0.50174925
0.98530669
0.07383363
0.69938367
0.78181139
0.24168926
0.56349107
0.63995680
0.14238686
0.67764746
0.35121129
0.55159445
0.73044043
0.40077354
0.92981086
0.57991216
0.33257145
0.37637489
0.96233375
0.93568435
0.82830596
0.51199125
0.60628841
0.24682490
0.93971390
0.67962008
0.07044566
0.56780415
0.21397782
0.36228226
0.46945519
0.71572707
0.34758895
0.54328882
0.41511074
0.12940034
0.78497808
0.97860182
0.76935714
0.92736495
0.65624928
0.12056843
0.47895940
0.38668970
0.52134198
0.40877026
0.96660187
0.85391343
0.78514515
0.92893562
0.78959777
0.61345111
0.44092687
0.39588618
0.86027600
0.38064077
0.07550626
0.93072166
0.94844493
0.28948408
0.29300392
0.41790011
0.00521115
0.64059287
0.96118893
0.42032190
0.76999321
0.74616701
0.39892371
0.53935035
0.67353196
0.05517299
0.65991878
0.15249135
0.44186269
0.18126076
0.56126161
0.40846456
0.03517418
0.34640676
0.33740018
0.82477196
0.95985787
0.77832705
0.22065814
0.82013387
0.15896782
0.29616440
0.75085553
0.10741274
0.58564848
0.04385946
0.52531285
0.59085963
0.68445233
0.48650178
0.01118153
0.45444554
0.23266880
0.41010524
0.99379589
0.90620076
0.46527822
0.65371467
0.05869211
0.90714091
0.83497543
0.61995372
0.31560547
0.87014962
0.96636048
0.65300565
0.69492158
0.92621835
0.43133269
0.91557972
0.74635222
0.59030051
0.21174412
0.49720775
0.69771325
0.79739259
0.54106721
0.22302611
0.38825222
0.22551953
0.70952789
0.39943375
0.67996507
0.94219669
0.80953898
0.67376096
0.84839744
0.27481721
0.32747564
0.90708956
0.18195812
0.16245107
0.52704328
0.49756359
0.03260069
0.49340376
0.15056924
0.72752227
0.41962211
0.58190193
0.64310198
0.16597433
0.17220245
0.85484610
0.66318209
0.86991570
0.65223869
0.20424930
0.09294181
0.04049091
0.42976883
0.80246970
0.43992466
0.10973390
0.74466639
0.24946365
0.78349486
0.59306383
0.52428085
0.11097050
0.50015339
0.70623897
0.27342157
0.02719666
0.20380256
0.30602225
0.52060043
0.35437180
0.03354452
0.94022254
0.93627373
0.67664650
0.10619687
0.10847618
0.53149260
0.76937895
0.97839188
0.18373129
0.97362825
0.07133368
0.22422221
0.40339708
0.87380338
0.66414687
0.51313098
0.61846977
0.91361051
0.29662584
0.21153360
0.43789136
0.40759634
0.71168699
0.14413033
0.68101790
0.73888365
0.34793290
0.98704016
0.25948408
0.70230470
0.02058467
0.19970661
0.63857843
0.69723118
0.30590348
0.74705461
0.22872378
0.07528244
0.72544649
0.41245507
0.04891069
0.79678017
0.63667728
0.45230776
0.67058355
0.30082415
0.96543874
0.28905332
0.21443466
0.26206458
0.50058692
0.65232602
0.66966092
0.21227391
0.79645636
0.35067882
0.95115756
0.14438925
0.33771897
0.21064164
0.84669395
0.35830365
0.41034825
0.48527238
0.05553483
0.71625174
0.23232698
0.28425860
0.79153417
0.95777347
0.69671368
0.84044486
0.75455364
0.33339095
0.29275262
0.42513719
0.63421510
0.25819136
0.71419051
0.84864976
0.52025595
0.21477744
0.50097578
0.18991686
0.42705135
0.29743214
0.54059568
0.37820891
0.44182139
0.87831466
0.58885055
0.28851534
0.23661831
0.99919880
0.77378772
0.29215313
0.71545054
0.00611471
0.57641174
0.50698471
0.96388818
0.27312541
0.34742957
0.71844182
0.60651637
0.64018219
0.14357901
0.24073147
0.89837356
0.85776952
0.08938123
0.41862950
0.07254696
0.59035701
0.60854637
0.49959830
0.88778915
0.14914205
0.87780721
0.32961054
0.02745671
0.46665776
0.61812589
0.26407502
0.46585656
0.39191361
0.55622815
0.18130710
0.39802831
0.13263989
0.68829181
0.36191649
0.40576530
0.03572138
0.08035830
0.01228167
0.67590357
0.22393731
0.25301313
0.57427713
0.08170683
0.34239436
0.99290663
0.15425379
0.93275137
0.60145300
0.65385209
0.82054052
0.75059505
0.53165931
0.15015106
0.77805176
0.99831707
0.76827695
0.04212677
0.46417363
0.16019055
0.59835492
0.64548073
0.55821886
0.73099480
0.33377255
0.92013535
0.13676010
0.36949393
0.00049365
0.14904177
0.04539750
0.22443096
0.40205491
0.61967463
0.30613779
0.74444927
0.61258127
0.46039158
0.67720064
0.21403426
0.11424367
0.49774115
0.96462931
0.64590298
0.64789222
0.74268106
0.64422004
0.41616916
0.78480784
0.10839367
0.57635971
0.38316275
0.75387441
0.13457857
0.11415756
0.08764695
0.05471392
0.25091766
0.45714088
0.05520757
0.39995943
0.50253839
0.27963852
0.80201434
0.12221302
0.58577631
0.54646360
0.73479429
0.04616789
0.22366424
0.94882855
0.16041156
0.72140539
0.91345786
0.80631453
0.36929761
0.65613893
0.45053457
0.78546677
0.44094676
0.55892825
0.36182648
0.82410951
0.31280265
0.49640506
0.93826707
0.40044961
0.55111897
0.18918473
0.85759049
0.60632654
0.58914416
0.36012888
0.88596507
0.39115850
0.48234191
0.47174138
0.93762210
0.21713619
0.51790926
0.16128634
0.16596475
0.67832082
0.88269174
0.07942261
0.48463535
0.25198935
0.73556153
0.93516993
0.03745612
0.17650829
0.49409818
0.39928260
0.00061780
0.80690083
0.89568766
0.93888488
0.20735044
0.44680663
0.12806961
0.06494093
0.05313317
0.71721377
0.42506981
0.93909824
0.10837227
0.90741172
0.41083961
0.04599437
0.12454791
0.92874888
0.20728071
0.29051266
0.60706970
0.08997245
0.36993526
0.09170505
0.34196180
0.10549680
0.02687498
0.37941791
0.28200509
0.52097315
0.77870051
0.28262289
0.32787398
0.67438817
0.22150777
0.53522442
0.12119480
0.34957737
0.60016535
0.17432797
0.06679114
