11948
3313973.2191757509
-11017493.9163721614
-12073792.3038114309
453454563.8323000669
5258468.2649004003
53677045.2594287619
-2858286.1081098360
2261015.2125256262
7566071.3841810971
164356791.5677230358
147239.6372923889
63231833.3392706290
-158759.7863209052
6374187.6511920737
6389669.2101102807
546923362.9743411541
9881266.1294748951
14384.1577814756
0.2944225700
0.3152361600
0.6950290500
27229127.5479288213
0.0509654000
14242556.8446849901
0.0765080100
0.6684065000
0.9938850000
19758721.9579370506
0.7232706000
18686247.0026385710
1289965.9153762257
-1187824.8882536925
-7826586.6689075464
362468481.2638689280
123354.1123377730
95645329.2463779300
0.3338044600
0.7650950200
0.3640788700
1368663494.1475906372
0.2170426300
48634021.1332771480
0.0170155600
0.3791752100
0.3049681600
1842863887.4226348400
0.3742916700
77860138.1573722363
0.4873071200
0.6687142400
0.6856462100
770340677.6736589670
0.7471366500
204939899.3668765128
-516025.6702108419
555307.1029537503
-485.1971674867
-2887.2388452859
115992.6503580557
12093127.1870223954
0.9040662000
0.5678755000
0.2541900900
678445618.1066753864
0.5245112100
85161329.2275510728
-2400605.5581211322
8263342.3476478560
9045783.5705659352
58200877.0369543135
-30497.6867618412
47804229.6494805515
-239.0543918608
-245400.8209709483
1307261.2133778508
53659478.8769825995
10045935.8495457564
4833.3417132000
0.7954284000
0.0725848800
0.5640850000
878699857.5032956600
0.2549210500
124414075.1211183667
0.2176862200
0.6974041800
0.1348663200
94858411.4183500409
0.1337723000
6242308.2064636443
-3440670.4922973919
-3386279.2139884946
4814172.1827571662
603022574.6404904127
-27762.1162309055
326360445.7910856009
806670.4717314703
-1879104.6580217998
-3504842.7660265742
90451138.8107421100
-114723.2271415802
83279697.4954019189
-626345.5698806060
-856867.5605990327
-335407.3854754710
251055528.0755673349
3067.3274033054
89101728.5491359979
565723.0623739967
1067570.1292122430
-107932.9629633494
28077722.4072608985
49344.6973638106
22257851.7042539045
-454406.5191944477
182679.5374922678
-5109581.0260550883
2868381551.4401106834
643182.5768165202
91939597.2935279757
-210639.2703424780
1247805.6577601342
-8313555.1222664816
1934733793.0184497833
328981.6597603619
191793192.0622268915
1140822.1339362056
6395173.9475039188
-1208068.0364585712
2596653769.7629494667
568213.9392925174
310846573.2425552607
0.5029589200
0.0168315200
0.7593157600
50478643.8373944089
0.7696251200
1253063.2591594339
-2508888.6449929518
1777867.8064517046
17365955.1753390990
2644500419.7437939644
608688.3756621125
724724914.3351119757
411918.1602373333
287570.9799257038
4724262.7767900713
2114526957.6131806374
269925.0999792087
260723390.3013549447
4176275.7753774920
1934806.0291704852
-3571559.5067190607
3371490075.8617949486
-533247.9440065075
678189345.0786406994
-1244746.6060069993
2988804.8936367445
-2398719.9222134496
453804000.1983661056
116333.4763579893
40617563.9437164962
0.9903668900
0.1934257700
0.2815520400
328738407.3481397033
0.9644606500
7608184.9983722921
0.1662856600
0.5888492600
0.4689666200
35001164.8830093369
0.1391764600
5728264.9773307461
967793.4466644268
3854450.8006699528
52143.7584381267
229437437.7136736810
12739.6796191804
24136259.2688801661
1342837.2393760360
-369853.0700314903
-2826091.3208981459
129249031.7364483774
6929.5818245408
52335546.8308075592
827873.0849868209
2214270.2591821677
-4364335.4148540711
510364699.4887888432
-243099.8663145852
162416870.1497772336
-236005.1741505013
-1218830.6036551499
-4682800.8363028755
2315706742.7356295586
-439857.9027654362
182784914.7954782844
578616.1870097036
-3190110.3740255139
-4217977.4739591926
1197244867.4275932312
-422052.0064973632
183351295.3948651254
0.2053272700
0.0651268900
0.0988515500
3532789.9862165838
0.8584254900
42331151.8068800047
0.5222050200
0.3804903000
0.6799664100
46847685.6913381964
0.1564951900
5381091.7600209573
0.9907803300
0.7167971700
0.2737828500
5096687.6725352267
0.7567026500
42233028.2329995409
1422603.5088492029
31540.8920502138
626738.6180205373
44287230.5580414608
5703.0587258980
1580054.1300329259
-1292463.9810028672
9.6282076539
-1101278.7326265227
1051.4600925561
2805.0503060329
0.2748448200
0.3397300400
0.5965109500
4482236.8671945995
0.4385816000
46717417.9497700036
0.1983972100
-1499328.0795436969
0.5765585300
0.5788875100
0.6972135800
0.7739273200
0.7353826900
0.1498422900
0.7647076500
1461362583.5636830330
0.4236251400
131092942.2990084440
0.2088825100
0.9818821500
0.3930628800
1250495453.8239753246
0.8149802100
225538858.9778799713
1745184.1803783446
433604.1635591583
-1019108.7592965835
257887723.8080295026
140553.6867880830
34112893.9036880508
-843973.9601851507
8.8878376251
-131501.8461893527
900.1989369287
2264.8806619134
1094462.5638633773
-601626.4735034696
-751084.3593105384
2725995454.4913673401
120480.2733173791
100734009.9433519542
3023857.1022514282
-1013855.5986753067
-20781452.1435730234
2680646690.0377316475
-35139.4246109001
278938395.4027935863
-1558493.0110775142
2832189.0539815971
421511.2452861170
195475000.0268964767
-91173.4323735931
107382583.8008594662
664820.7372390692
-166010.8255002464
182961.7562943567
147838025.6993729174
-5197.7239312677
23980010.4548392035
696813.6629979033
-4808582.2310543237
-1172600.8571057050
283029471.6797044873
19836.9106160270
100779940.5592033267
-1232865.7516365419
23762963.0194991082
2345468.8868185477
1119359815.6977698803
76705695.4905968010
-48611.5607779931
-984920.6581042205
12.4286887245
-335579.6198837474
907.1863322794
1654.1950690954
196823.9062689196
208759.5418155563
941561.3391147731
4928004.8908318672
9682.7861743337
54431148.7604164928
868090.7651518134
3973345.4594935174
-10923947.0872090328
1146074818.4735069275
127211.1709624188
46686231.2401023060
1466961.5643415253
525656.1565182358
-6729994.7791161910
972005859.0202666521
189043.1135403818
119413053.4804860502
-613734.2226210844
4.1750500070
-507389.1237689421
1403.7531020166
2355.1854530472
-1093714.8899128260
51.1784271327
-1458691.7891935378
4820.7332192958
2738.8263186156
-145467.3261881948
1000253.2730610562
36851.2545108939
6704288.1851738319
-6169.0639008017
56862154.6770980284
0.6986226600
0.2527070200
0.6336285300
4750220.7335787760
0.9748394900
20379856.8898417801
-203723.9637231337
359339.6584688581
1809125.9261360159
541915729.2784265280
1263.1498550000
50788601.9769437611
35150854.4409606010
-1808144.2173222112
-4239664.3108573239
4946520757.7219295502
-322612856.6213949323
673490778.0770525932
230564.1765142255
2268285.5270855292
1513018.5538057873
72536362.7236990780
10159.0170470574
6101069.4506855896
-1055361.9399468973
15.9465076929
-230497.1151162386
2091.8652567153
3617.7137881452
0.8490897400
0.8367853400
0.0747621100
770052.7473151085
0.4704138700
30842460.8630257025
-333337.7427055468
361137.9935349540
-461150.5491711446
4598055.6555900136
7652.6508583410
30734384.0192866847
-850323.3822645595
-18.4245044377
761346.6997709224
3471.3573641233
5484.3690752137
0.5025850600
0.7386123600
0.8450400000
89983700.6568816155
0.1905687900
27746378.3805912584
2192009.4380681925
15096.5976253973
-2065934.0293039312
826679255.3965203762
45595223.4038791656
13054.3935214132
-189857.0209231552
-210350.4882445384
116889.9929865659
10514754.6726596560
11431.0769690332
190550904.0035765171
28637.2305779362
1706426.2256127321
-284484.1371273057
124296227.0302367955
9499.8334740872
3830233.3911228022
1471232.4820032578
-980748.7350565486
75452.5095798025
428699741.6924971938
-163777.5578560000
88526539.1363670379
945706.4856173483
5532327.9837833392
-2377137.2671908578
3103311930.7924022675
56508.3094836946
205482804.1084565520
1006364.8901979212
-3287816.2089546472
2090423.6951652269
3833674481.5376505852
1004232.9888402013
150970020.0154055655
221857.0538425389
33.9208660080
-328470.2014895722
4099.6159858788
5299.9997836440
852090.2147262157
3166976.7533130413
-9106326.7291203197
1230502261.4627847672
-117295.9954613966
19282096.3494722135
1037333.9731370409
33619170.3594896570
-1857010.5799754409
2109436628.3410439491
113188151.0318334252
115542.4211880836
-153242.5641312975
12.5865319958
-619692.1378444714
1084.9338856308
1528.4027807423
1699125.3636323849
2285073.9664744600
-9636418.0385425910
732277450.0686340332
186966.7382860362
86642589.6557523906
-215871.6403323604
77788.7125243173
-3584477.3644754826
248528405.2382912934
-27315.0103566930
36604100.6404122561
-244629.5459607848
24.2226238852
547044.2147541214
2245.4722875383
2619.8626671470
-86644.2549955066
1926966.3590543438
-458048.9930042421
67768741.8033158928
5477.6012060111
14608274.5312250368
-11727.2832823068
1938807.4331142267
-296958.4420095539
331904132.3066256642
46652.4548971343
76720842.4713861048
616329.2658769770
11.0603569463
274309.0718447427
1239.5989249324
2243.0851367402
-579841.4749613232
-46.3926295065
-478198.1270499514
3728.6021749180
3833.3543212891
858972.8606282234
-21.1526629406
274805.4152766984
1890.2219814120
2869.3833840629
-1568758.7553392814
2657709.6863418627
2310757.4180666558
287951075.5536605716
157977.6808250736
95790028.8529405892
101488905.4102359861
21526345.5815040469
-25194536.4864767641
87213218.3273255676
-8660471.5180603247
939679119.1861088276
0.7532582700
0.4322273800
0.4531235500
35931069.7746533006
0.1535812200
2285537.4862193479
0.5177049400
0.6998383400
0.2219322900
2572250666.7407865524
0.1866344500
359704380.7218542695
0.9311014200
0.5079170500
0.5855679000
950532831.5951983929
0.0955419900
244637133.1786925793
31406951.1570387594
-12341263.4214512128
-15077966.3627311420
4859772762.9773368835
-375154194.7023104429
727819058.3964176178
0.5773954500
0.3187902200
0.2399572900
1508074752.3292803764
0.4963111300
159079891.2362803519
531699.7047960541
-20839933.4782200195
-248542.7110411115
2670955365.6895909309
168062642.2433229387
82056.5918002506
-127488842.7690420002
-52568772.7651747242
43961199.0269833431
-4974752163.2564725876
-483811.4642324685
1231402039.0525856018
794606.0472912448
-23.4015881599
113730.7829904940
3785.9394523359
2680.2911718720
-2651342.9127471684
2502757.1879860410
15029005.1207828838
2179974573.9337706566
841697.0051901466
585299338.2147779465
-342922.7309941003
-2.1566715121
-585492.8808377306
1387.7870590432
3435.4985407317
106054887.4804396182
-28993969.4274872579
-65691866.9476002678
7412942636.7711429596
-4007062.0880684578
1404014384.8112306595
-2711672.1188469301
14609995.9050711598
523275.6223194404
1557703831.8174598217
168428872.0378494859
152518.1298486669
-166399.8586007347
2179385.5924650361
-1399337.4197676934
203192808.3362770975
36176345.1920246705
-18621.8924541801
-67501.8862260734
34.9896188940
753004.8102898024
3916.8676134055
3741.1150727556
3620684.7467903164
-15655956.0399085861
5949264.0246587824
1010281409.1059612036
178155876.8638726175
-204638.9532356964
-183526.3289704038
195328.1569888493
10482.4283712579
15445305.1876976900
15736.7038221323
76373297.9646770060
-6431575.5160154887
2038835.3626677468
-4381253.6990949819
3410772232.3397955894
298572.1039963876
498434598.2211632133
-1650047.0596644268
9.9251126963
564587.1409815586
1968.9527102720
1468.6375170351
-294265.8313705823
2497809.0152560519
918868.0243014005
441591286.7592537403
-3438.3648887500
48446154.6741158515
1191296.8953716413
-2313337.9783104919
101474.8356650360
251108823.2413555980
-254698.3641180000
100226839.2725916952
1400674.0868891480
-1092892.6578604032
-4643134.7442862196
258659752.9705304205
-306.5268800000
21591835.9046417028
-819110.6953555325
-108912.0380314764
201061.5893997926
135766551.4270831943
49650849.8435109183
-69384003.1658994108
7241307577.5017051697
1534638.4134357569
1234203473.1115863323
-596160.5224808153
-1755505.6054891348
1699606.8211893463
598730583.8525929451
-76713.9411637500
89039216.2342016846
1264266.8426217914
1506303.9404506623
-2734550.8872373039
613207311.4552006721
57844.8855050000
49966410.0286039039
-963210.2704328805
86959.7270764061
662136.5447791930
-57565.0071442470
3815683.7753903624
-1194061.6978138457
286083510.8644012213
-103756.7633520000
74243645.4370689988
-2827549.8900825381
3204827.8451146274
4038800.0102609606
575771581.4857178926
166715.2185556932
97619818.8971288800
243122.0990722759
30.7850014378
775256.8041646439
1606.0499997627
1929.2443173720
934020.5464509923
22.0073906687
-279632.1067178719
1906.0533928411
1538.9622315813
61790568.9060603157
7136661.4696422555
-18495777.2998622730
886210901.9153424501
-554767290.1991573572
906284578.6059422493
-39270897.3740851507
-1093390.5302505835
-1470149.5494292737
-9986120.0662954543
416655041.9184120297
121019654.1069161445
-133187.7328274086
128.0497663988
348410.6106669693
8120.4763943063
5621.7193543128
1460556.5444968881
34.5897309093
-126206.9137136488
3107.5850764707
2474.6771387516
-2157550.6259529307
3.8268666607
384278.1131135454
3633.9082608110
8692.5676399321
0.2111938300
0.0863673000
0.8421488200
53911715.3617255464
0.1589122800
13646414.8722900022
1944879.1640121196
-7757.8705679475
1436738.1636463006
704910326.1106154919
27823561.9493646026
44666.6122264554
-1018006.7225471359
385045.2797990192
-182066.3848501920
885915.5745755811
1696.1462019911
32508593.5721349716
1957318.1867509629
-17.4917554403
-1341359.5616105625
2977.0393474202
5427.2472587056
520120.1915835423
548574.1012252088
548461.1926961147
6856776.4313828181
-4864.0378738174
75556098.1386696994
-969629.2936438965
-1513677.2188642626
894988.1352661318
65723763.3556404039
33140.9245695320
29532885.7178822570
563032.0784811956
7.4434312850
444219.5143978159
3204.1845710625
4040.9178918333
1108135.5743977888
0.6828221820
1292860.6881424044
2554.5284100673
2937.7988856362
-176233.9207182998
-80084.6207005480
-1278643.2645314673
72136410.0671173334
-766.3030456829
1073436.8993871796
1243965.1616009453
-12.6331634202
199020.7866481824
1141.1452232190
2576.9503979687
0.3903870400
0.9345781600
0.8103320400
53667487.2202435657
0.1299637400
5892062.6067061806
-981107.2954248230
420558.9556483288
-5959041.0184898302
1643045096.8155450821
143165.8335202950
176847374.7600331604
-294505.5843469801
820432.5243949861
4005070.0463533537
259089601.1496955454
105148.2872220077
128196830.1786505431
-428685.5898740489
8130128.4417501613
-9244296.1385708433
2359398811.2555341721
-542904.6214499191
119717983.0733508766
84410828.6216738969
24701804.8182345629
-28670849.9878912382
1959201828.9186613560
-1016225.6568139796
188010068.1571447551
-695231.2306199964
-31196350.0271818973
-3013023.6968122628
3384609374.3838839531
78351222.1672009975
-161712.7106033321
771553.6528770450
22.3213988277
1014777.4922947005
3766.1574028117
5001.9776255841
498697.0962024085
-15.1996821915
398622.5719485985
2698.1894078903
6907.3455612295
-388027.9875568000
-6.5236318927
746011.3496201156
1676.5491487983
4226.3578866165
-3693455.9921848080
27130328.2723336108
9296974.4991716668
1383670959.1320741177
133062584.9514469802
-310406.5568111123
-1372278.1799246378
31.2330951250
827984.2940843366
3853.6021614444
2215.5765346761
-1713325.9325018835
10530711.1421455275
8981897.4307595752
43610445.7984843031
121083954.9914787412
-99192.5712678870
1980339.3474858555
7242880.5904794764
-8215616.4508730303
1105767783.0215287209
82123793.9325016886
355847.5732150431
-3815341.9180925265
8741697.6726396792
2885098.6906558666
259632549.5153814256
40629990.6661603451
-8425.8898621052
2116377.1027009361
-0.4765760960
1061675.2466881571
1309.3546576709
5261.4272924202
1332833.0846307662
-4519191.0646336423
-848879.3829496931
683990239.2502577305
123575375.6541820765
75523.1725277774
-99337102.7024949044
-28868903.9564520754
22645469.8488824964
964196691.8804939985
8639819.1929799393
755434764.3065124750
-397180.0577882638
10949161.7754664831
-2094604.0822972918
314626788.9700044394
16176938.5660999883
2693.1643016668
103592224.6632958800
51111302.5511797741
-11460783.0272287950
5454565509.1450614929
-1270831932.4790723324
530611455.8911801577
-1245613.5829408912
5052791.2487427508
-612149.7445060055
62912430.6654270142
135545146.0351831615
3182499794.1658716202
0.0958085600
0.6236970400
0.5780362600
48270891.4395450577
0.9138102800
194797376.3942053020
0.4871100900
0.5710403700
0.5505796600
4596682.4002997661
72141093.7563214898
-431766.4445850970
5231489.2958182693
-1680964.1959072663
1634300773.6038308144
82379956.0005329996
355993372.0469779968
6239045.9882631917
-520772.3677546487
-6089017.2307420513
37731902.9236857966
433055721.1088120937
-8256604.0024096752
4985759.0550947599
6831748.2613153784
75060050.9717219472
195171674.1550989151
-7215672.0813701861
4699680.8601433365
6920039.0773894396
55309847.9493738264
215796670.7170445919
-2290724.8858634951
-31.0080976846
-217284.0509780338
2908.5925122550
2479.6954564655
1381749.2704278710
79.9226610663
181908.3172722530
2212.6215881329
2904.9593131240
-1048356.0035292337
-57.3006376818
58842.3854919489
1637.0600829859
1721.9255981799
-31046799.3633003123
-7786567.4497862179
56055524.3452481478
-1172585484.8135032654
541207.6571871660
860529127.0916012526
-102918596.6369562000
24957863.6453000121
60030943.7191988006
-5896460759.0691299438
4507565.4984827768
512720767.8925858140
467314.3422119408
-1100338.7370645951
-1647524.1023345997
310685038.4799429178
11250661.3938316833
65980.7522693262
68705.9227288251
-52.1726774213
291246.9608533459
4972.0518601331
2818.6673283132
-502882.2871342303
-21.3646509701
405863.2717741257
1626.7765628930
1708.4428491049
339646.4295332343
-1435784.3117139586
865732.4664521302
7043086.2718685400
-5853.3248753577
37960337.4768730476
92695168.3560271412
5740755.4441755246
-90986477.2246501297
-417393730.6500024199
337323.7016261198
1038145919.9975571632
1864780.1291718849
-6175978.9380116342
-28495384.2340713441
2443407589.0898952484
90849599.1565794051
629883181.7756655216
-137223.8670706015
120456.9544312228
-1165589.1626067180
-1018614.5208458999
-1688991.6745361576
-2097862.2742190384
164846178.9610343874
-10166.0727300000
30153552.2382832691
373747.3014937693
-344547.3734502753
-4419551.3609326454
-932130.1216602002
-2419941.8356769523
554912072.5707910061
101330.3560087500
54642616.4841177762
-389273.4118458791
-136084.9622695488
1232444.6936363827
-70497.3716142092
429725.5138328583
234617.1761888199
70798.7222891213
-254051.3134782162
3417177.6296614460
952980.1092123252
-4148910.5511023169
196421529.6124463379
10467.9120700000
63092587.9057864845
1000053.6914587108
-5428852.9504866283
2391335.0836126278
403544088.7389978766
16429.8690191726
43954354.2655657232
-451080.7739818932
1385976.4937235606
3805436.2441145005
517036714.6088287234
-26419.8929225000
69845610.6183103621
5239701.3584422702
199297.9329450611
-747826.5682114506
507805736.8572531343
154694.9430537500
95829593.4072067738
2110178.6079793149
60790.1949894360
-143572.0318763320
1114906.9205470723
-2821319.1408435036
-4679277.2945676427
274451524.6665508151
-183819.7761840000
138669001.3553069234
1598258.3802729596
28.4761488243
-1533148.0266488830
4584.8741805424
3347.7855425805
-4145371.3710518768
246.9013748027
2755064.7392192367
7092.1845668509
8921.7321075426
-50473159.4086643532
-6950730.1887075473
4158196.0425036014
-62543055.2192254364
584632221.0369030237
356672529.4152876735
700846.9025227246
-334268.3215975262
1699314.6523460376
3988650.0688494192
-29870.4090990169
151209624.9954472184
2661983.2463830849
-175.5805155953
-941519.1567525162
5297.6578933401
9452.6236576639
1717562.7394437941
-23.6593942989
246828.5127599550
4488.0672739732
4089.2900829334
422050.6468961623
42.2202459144
-1024725.3201155396
3146.6198427243
4670.8840019110
593094.0002240055
-415988.9306448667
-4016044.7108881157
55331464.7931269631
18707.6284608756
13131776.9664430842
-916480.6530981197
16.2825947934
701016.4667786057
2107.5944809043
3076.5521806320
-2358599.8521989365
-2656.5017794597
-2347521.8845442506
153584793.5135604739
39879970.1914522126
-32561.6455834774
-1624717.1018056355
-12434.8546654681
3300220.9254401694
162213130.7550683618
1168912.5269215386
-46190.3216039983
2087686.8373386851
-0.2976042321
1082249.7128330271
2019.8244692783
4940.7388776162
-1415297.4195392837
-206247.7839578837
-233621.6534208416
44584688.1335484758
2494.2178139160
4947087.4045345848
1846628.7346059300
-19.7992147762
485802.6232636450
1793.9130435653
3126.1765581307
0.8767927800
0.1420467000
0.7329456100
456498941.6535828710
0.2143733900
145170267.6235254109
-87106865.5056421757
-32550313.0118059106
20746826.5561700724
-777385430.6596310139
938504.6472396632
1254045424.7964615822
260400.7058746645
-24122521.3527807146
-7258656.2449374581
2979344764.9570374489
47943204.3060429692
352310.0612163979
2562365.9238739787
-33.1237107043
-2323646.0060132863
3758.4735226413
5162.5366019283
311923.2394551613
-17567652.3815898336
-537473.2224814638
569943045.1385880709
31969804.5200553164
-265557.2873823352
71264.4524016779
-2609834.0091952300
-4928115.5411839075
487563675.0116305947
53018571.1993708089
-129829.7728981900
66632889.3349524885
26325731.7693510763
-125542544.0639211982
-2977226095.1606702805
-2057655.9946253258
503385753.0595112443
1062986.5871248073
-11330151.4673777111
4274678.4960506726
309237802.8815885186
8919702.7940584887
-943.0910409258
0.9970138600
0.2275550100
0.4303159400
252010819.7961820364
0.2661209900
0.6815970300
-120922470.2658887804
-27720922.0894061998
14390351.9692345560
-350575210.9128283858
2075351954.1724872589
2266700313.7225880623
-13775092.9888723418
-1266679.5567525462
-2414637.3714530566
21187246.6632617153
259192507.4517832398
1450309.6607712777
1082252.0100570524
2243208.8602639884
38569414.2075750679
92392.3303764045
312799264.2880165577
2648281.4317889875
-3012821.2741744653
-3651814.7644202700
692977346.2482286692
27854302.9402247146
19907098.5054261573
-2739775.1753881415
1857870.9121491148
3850233.6505397391
174964360.8074699640
189181460.3029641509
0.6525044200
0.7171352000
0.2340527400
48337600.5295882300
4243775.4042801214
116650542.3566298038
0.8495939000
0.4409964000
0.7022539700
61321376.4284661263
0.5539893800
243129132.7039168477
0.1197236400
0.9268877400
0.4182580200
94109330.3332076222
136972374.2922796309
5382056.8180742813
254754.9159183190
-15917362.3699939586
251115703.8617488742
334558959.8096364737
-563832.3250291598
1555858.0014596863
24269222.0527775735
236576067.6360204518
149022180.7654258907
0.7619089800
0.5430735500
0.6697887500
78099135.0529808998
124850332.0305364430
0.3869239500
0.5484174300
0.2529484900
1559450828.3735060692
266570631.6548717916
0.1025423900
-20305022.7875798121
-585794.7427421198
-14249292.5228826553
214121574.8498946726
348481249.5742611885
5290367.1715199426
5929121.1034935694
45895554.7107766122
1399137530.0779948235
71102712.6287500113
991605191.4844046831
20967326.5844029486
2055913.5295350486
-3304607.9798291698
222111076.3714482784
604984295.6039619446
798570.7742254365
-2386443.0030276100
15154844.2426502742
289609989.6462982893
138604996.8469367921
19202226.1537746675
-5379907.3373779608
-2803412.9837777233
17569263.3609673828
886580534.6776363850
884293.3606353793
889813550.2608326674
22205130.2988744415
15954531.2435066756
-1924338.6687458735
7001769918.9163026810
-1518969.0274587346
1133525305.5094451904
20931137.4546656460
4737828.5398517335
-52143817.6809987873
853785015.5228402615
681108.0845376137
426245825.8793600798
-87945688.8128246516
-9065786.8802808281
64923748.2548772842
3978664401.2021279335
-748546.5897182754
590028008.6859008074
6866427.4003394730
14577835.1417882275
-31033245.0697904490
1343883328.0563089848
-93694933.7424139082
1761109818.8573198318
652588.1806527991
1475798.6715562160
-62909.8250491284
-1685252.9780004977
580424.7231946971
-529554.9327755625
-477211.0730063894
119332227.9906393588
-7017.9072023073
56784564.9367128611
166973.8935425439
249677.1538958903
222325.3848664250
91501969.8489462435
10239.7715961535
10746230.6557918955
-567742.4554925035
-610548.4036776754
1683454.8502655916
204594896.6353398860
-104080.7628437500
267443536.9549153745
710373.3194397468
2417911.8931674426
664515.0769709188
-1732105.7478789880
3619922.4967489410
-5669965.0164743625
-3629150.7705081594
174581236.9116010666
104609.8730600000
383294120.9758067727
-897105.0957751600
-235326.2838267998
-6473745.6057823338
356256005.8727398515
7157.5444600000
45323716.8316265196
-1742311.0455857541
-178437.4665238164
320146.8890624989
-890503.4951338373
1166087.7623799143
-647550.1067954912
-186719.2639230652
-843451.5114916851
81581766.1707844436
31737.6791769220
9291178.7309293430
40030101.6810900122
12463632.8853030074
-25329450.1970385835
859539601.5054767132
57404.2001094031
721903454.8458744287
-3367205.3842805671
204065.2283231180
-785466.6347634139
290715941.0571529865
77389.5723425000
78181905.2466785312
-717031.6618195480
966069.4399234997
1749522.7999308782
254479432.8392835855
-48246.6432969224
29710827.3812017255
-876815.4775113040
38864.1048234334
651683.6563480037
743915.0205603575
-2678954.8244818700
-3461721.9158420139
-6445486.4412620375
1851089.2772738654
309938780.5342011452
-177750.7646670715
815995236.7075023651
-1797142.9282097856
-133557.7263939514
-2413992.4830883974
32537595.0032711253
19341.7337450987
121396141.9348050505
-1676082.4399519220
53.8192246767
2285532.0653492673
5986.8616054839
2894.7990923667
562491.6409527654
-82.7281128337
-573261.8699639817
2614.5242511002
1765.3688114733
1001547.8926708198
31.1645994226
-235672.0542226798
4655.7249995172
1837.6934722279
492615.1682888654
-7.4594012234
335329.6920500973
2885.2321417252
624.1447434021
171990.6521539329
-18.7967754828
796009.5966295833
4155.7142495446
197.1620118402
-2269870.8008636544
15.1557008998
-820413.1766857717
4386.8944853254
5309.3870874222
2738009.2829247070
-4526426.1664949171
317475.8364043435
670431899.6668958664
24787215.7350667827
-30082.9591239342
-400102.9918418525
-23.1645040977
-115908.8538249173
2546.5098576485
4381.8135354188
-1267279.4551082985
-1079450.8336007777
-3937324.8289501802
163367353.7882390022
-11807.6625033963
16708554.6125523355
-1378993.2707251729
3292754.8039164683
9967799.6435806770
4442808332.8912534714
-234144.4089531833
418996293.0361526608
11950.3867011851
1733287.9534480253
899306.1185979503
239627510.5656430423
26122.1654399869
27158807.2120623849
6066198.8247081675
1499992.0922715261
-15259425.7125159130
360026739.4523821473
224209.3037538208
165661415.4418973923
0.0750363900
0.0527964800
0.2050548600
102129343.6138755381
0.2493760500
57189021.2223941088
0.9233487300
0.4111879300
0.5936738600
2226767656.0607633591
0.3059613300
213689922.5175220072
0.8689975400
0.7352585100
0.5384812300
106473863.4017822444
0.5196744600
10295978.5796495825
-65940565.9332875088
-30573279.9063837081
100393026.2912174761
7888299642.6143026352
1978516.3863693418
724887141.3545405865
2527122.3015592769
4.9685490609
694462.7310264435
7090.0848174196
6841.9407704544
85172.4911582268
6156172.5271461587
7029883.6864675190
4575539105.4717836380
333835.7620883322
543421965.2692990303
-84669.7094588218
1231898.6749937930
-835236.7245848961
184470074.9886115193
-82676.8252713116
61674191.7984320894
61961.2424731766
-376033.5938645006
709607.1033942222
236898389.1368170977
27291.3574498238
35600243.1819836572
-5627199.2072757613
4437821.7807988375
3361180.2344845152
272938888.5688465834
-140409.7024212904
666260568.9911687374
357752.9153532270
1861070.2618272197
-2079957.2234950068
201677275.3379664421
-26015.2941777244
12857318.8904789332
1073310.3193039503
-2103078.2593452982
-927332.6892149597
66162843.7880595699
-59833.5242493066
127404685.0640199035
-76217097.9927141368
225854571.0091101229
-9108134.8638632577
-84275652.6601527482
97828751.0685670674
3367825354.3037133217
0.5908422300
0.4121430200
0.3669030900
78091553.8917141408
0.7365307300
0.3167485900
2061653.5014197538
16607596.0683651064
-18287148.1547792926
147434504.0803531408
18500.7987014922
125099310.3461112380
6372531.1350067528
-5713401.9253006214
-5877580.0788894817
274482150.8504912853
73189.2579405710
134145003.3120320886
27693.9601077566
202756.2208370530
4614661.6142133027
393046602.3426047564
96816445.7398056239
12139.8997209685
6165895.4863296291
13205633.3648266084
-19005582.6935389936
341905792.6385086775
16812.9979402982
238639316.2089589834
11258200.7531463932
-4726083.5159049528
2583632.3267070297
66837977.4349032566
-17472.3641200987
196204674.1288856566
-2980372.1654927889
-4866879.5027194200
5617277.6767041832
169239812.8319364786
117506732.3031508029
-10293164.7792616524
-6922742.9836602723
-741537.7859791436
166791325.4062786698
183506924.2910534441
0.8125895600
0.7304218900
0.0168022200
63238637.6027368531
0.7153524300
260701856.7842970490
9177116.8218116313
4249745.3117716676
-7560764.4634021930
202767992.6517648697
305474967.6161999106
167252.6081250352
2569971.8996437159
3671435.7546967855
99607935.0969028771
89335491.5189907253
-25254673.7060338557
-2545147.8499219362
15905081.0607097223
450804511.2967658043
114326.2904871036
1610684026.9999554157
36123117.4936075211
-3854659.1198606645
-76580317.9258525372
581855057.4606250525
-105020.4782187558
-809969742.7312536240
0.4601400300
0.6991251500
0.3037311600
201686840.1691316366
0.4295470500
555203563.6207119226
18479857.2854220457
-3887869.9857386765
-1919869.8076316533
214630405.3472553492
27797.5518455737
402554220.0475785732
-13746704.1390667912
-2322736.7148619341
21277816.1983532161
264967402.8717871308
352904229.5258045197
-8154536.3282060176
-3357097.4705045577
134098.0242464743
222379980.2660836577
122772381.4554050565
-17006807.1084012501
13284584.0250862427
53817370.5773614198
1734461011.3395295143
-221023038.9543634951
3066185330.9183568954
-6258095.4845518898
-2137613.3265222148
-3205399.4317402798
216782551.5210672319
34641427.9500334561
-2378121.6974181733
-1062974.7410367916
4310307.3799816109
289058536.2412493229
281406942.3569377661
4273553.5194833167
-1477862.9472579048
-14399008.5923857521
480519905.5819096565
-51073416.3216065317
80098522.2457283288
-2515274.9304059995
1191329.0345704178
-5308438.5248208297
90698617.2444670647
93284379.4962869734
4519260.4741474949
-121977.5077904662
6073454.1259610215
84497976.0924194157
144359075.8577793837
-71074042.9284857213
15216931.0176030919
16497032.2386311423
887077715.0387386084
7040049.8750359043
3774637757.3478293419
75424171.7954896539
28935839.8271450251
-3748337.9272084390
192038271.0836352706
2636282.2529266663
776032040.7349789143
-442670.4066668772
2244885.0919681154
-9972534.7233071104
130625923.9031229466
95661734.7861759514
-256526.7888073352
-1241854.8860497845
-10909679.9897088259
96443556.5951210856
102329854.2621525228
8190730.5915986160
-3495468.7963116532
-16838675.6900163926
1638123929.1783602238
-75640563.9004284292
193783428.7420865297
-19290832.1930639409
-9271199.3284365851
23653011.4908093326
1143663022.9499800205
-399407.1568694699
1063868256.2079777718
-28190241.4221007638
-15407633.4029770140
20169905.4198753536
524796878.9323890805
-213875.7967964539
2125305324.8753244877
17708579.2303341627
-549314.1377566452
-44253289.7777100131
1140003415.6769032478
1005163.7382822077
1224972104.5142891407
1658007.8988143092
329458.4334783783
-3542610.5247268318
128609218.6207971424
53993.0352500000
172447191.7844818830
985134.4931983647
-208794.5195721537
-190225.2838797042
-2379869.1077850098
3440058.9450083999
604604.1246281994
82182782.3803909570
33544.9187837500
349153922.6029265523
3119164.1255346453
2178174.5542488848
840284.2006209202
66091393.0973003656
61132.0916937500
615743849.7344121933
-660016.1978131612
264294.3153448062
-2356799.9834413189
-3745822.2788308053
-1720136.8018589204
103917.3075750853
39790183.7270366326
45350.9168693377
363911557.8141342998
2101097.8980491743
-2081495.4024465836
1738986.1891547134
-1296744.0458328584
2486933.6198466960
86728395.1277944297
-55117.3047227647
245041074.1372344494
225896.0631340520
-4401471.9654580392
-291395.7709094947
321094130.8598610163
-228854.0658669382
552702095.2761783600
-5066302.9894379079
-2499576.4809375685
1621978.9091595360
185855802.5089248419
479149.1581478723
463054669.0665218830
4635099.2738893256
3694731.0179424924
-107433.7599159514
261136876.7029257417
244035.1687689297
612656547.6121854782
-2453796.7642558618
2530792.3506329558
3974584.5324761388
6086015.7545796884
-1222158.5340505976
251147737.3510894477
-58002.5889391784
336157965.4793543816
783882.8426542754
309667.6099853669
-58259.1309914215
44406068.6268537790
12340.5153235298
104586657.2164934278
-1059175.2818898347
25.8832985163
-116408.6128845066
2989.5323377058
1094.9505822125
261846.5171468188
-28.7594165951
355424.2310652787
3879.5338956010
1233.3050963459
635870.0198694650
16.7898278632
-156473.4954842805
3061.1058800563
1945.0932707407
-152128.3045863920
-4.6682077725
196518.0361775198
2681.3071003198
1395.5477881346
101806.1307037303
182781.3456202802
1036341.8926290870
275538401.8861275911
52279.4386435528
839115883.2357661724
-3291553.4113651542
273008.3191565861
7741120.4049076615
165579415.7010464668
61605881.5867831260
262476299.7686976790
-3454640.2728944318
-1189438.2854920642
301448.3091504138
13587808.8746684976
78298.9947501487
216694039.6741850078
33941938.7843997777
-203889842.4800164998
12181285.4241442923
84275165.7586006075
65002992.8674694300
-557241298.1414399147
-8099373.0806076936
-7090450.2415233050
915156.0605221466
43149186.1306651309
294522.9671417415
535598804.1709529161
-791607.7071824596
-2735070.8890051451
2043153.2042848445
258038951.0884100795
-191868.1168590343
563879774.9623680115
2281079.9221951286
903933.8139777909
408081.2966835325
-48804.0286921108
29035251.5871006735
332890445.9525445104
3091615.3707442675
932923.0542174861
-217717.6927770425
34924389.1485535353
11187.1477088273
271535190.6342809200
-350167.6657319584
-1924078.8473737258
6953409.6550827026
352455224.5976223946
158650256.9070608318
-97164.9922833099
-804921.0590582776
3760654.9154960564
557037.2960803870
153558578.8430255353
-69795.7466905332
164201075.8953247964
34056957.2018136457
-13011100.2134323977
-1747294.8211477862
127971141.6823503673
13013830.3613931965
1348627020.7388000488
0.6171277800
0.7902392000
0.7956271100
110129384.5586910546
0.4711989000
708007695.5214890242
0.8059079100
0.2600611000
0.6197128000
6180070.3794703605
0.5021429900
36532305.4306243137
6031287.2869333914
16948403.5169752277
-1898603.9594799706
75766.2654593725
73915123.4797058702
1036199652.4198180437
5184037.9780998724
3919262.1170456363
-11853694.7209786363
-103885.7603886936
550543887.9428709745
894027466.5952464342
-5919378.2941606045
16493601.9461215530
-14939883.4507007450
120805874.4265971780
101884.8221198576
17784903.9369064309
0.2581217500
0.0673539900
0.8962822800
22454674.1234367788
0.3954965200
84751276.1579431742
-10418127.4911225066
14794023.3054273091
7254.2971085403
599357678.5896569490
11829.8992239981
153270706.9661023319
3332289.4800835592
-10483986.3587626871
3755679.7825307534
2330944004.8331031799
835353257.7498327494
87153505.8869003654
-10223339.8366075270
-1745530.6525082723
1735924.0293060748
429580699.1052621603
-42693.3069515774
291292432.3022153378
-4969528.8490914144
9394112.5666817073
-2173257.2102514319
-13728.1886778578
111979275.2250439376
253400348.2213527262
887355.5270841194
13581342.6819272432
-8387894.3061366603
50147.4294876330
418899119.9901710153
551726708.3134274483
3105628.2054344811
-1694622.8176139956
6666227.9056225512
191790589.5648045838
7844.9447639702
287097491.9322376847
-2022884.1074883624
-1594596.8678026823
2228582.8531747740
78965253.5867109746
22342707.1022627391
-4343256.9993464965
-3329090.3211900946
-7173662.3788097221
125845259.0047475249
81091649.0836009681
-1056932.8085573344
1192062.9031110266
13272496.9538824260
390796891.0912261009
-9590.4535188777
482476090.4890056849
-8453693.0691580847
-2321317.8063423173
7934013.6890179338
426804256.0904353261
139923422.9774288833
6585846.3386207717
4915978.8215866694
-12587905.5073148087
257769629.4399087727
119286212.2808077633
7766317.5100223999
3624025.4853313584
185272.1901615506
122013778.8981707096
134113872.2817799151
50430633.9402649477
39151922.9799854010
-73577685.0859881490
472223177.4223197699
2472899.8758367291
92212531.0285767764
-1151280.7975179018
-12219587.1035944745
-6443834.2773522027
1853645940.0857980251
20330652.0797771476
174301437.0617364347
0.4182203100
0.2080591500
0.7052377300
72612939.6981737912
0.5960356500
425392032.6823588014
5081063.8922830913
-5001810.4752099626
1059542.0788303749
151390839.0226500034
74205109.5419168472
-3493242.8912295825
797646.6559075742
-4097819.7544546244
42918739.6350189894
78380874.4280079007
-10073156.9766421504
-3773888.0291050966
3027863.6572032082
294148412.4159141779
177036130.0716255605
7061855.5744845904
3541548.6661229921
9245154.0611415766
186693467.5739146769
135850755.1515762508
3378810.2280836813
-36960234.8799279779
-20125538.4911317006
405614702.6990358233
-100550545.8657564968
3809236112.0032315254
-4831691.4723150311
333019.7223852458
6181396.5326285362
189041801.9909391403
35925501.1993489265
-2506128.9873531656
-987003.1065598103
8829946.0776773468
110697671.9149224311
56866240.4651230201
62407188.4977540001
-4637695.2682070229
-53974338.6869178414
1197365955.8985965252
-424245.0250112775
1673102896.9368882179
-8426301.6682835072
2658872.4039566014
8806595.1697570514
643728453.9082127810
29649436.5416637138
715364277.0366535187
-21528358.0244301111
4703392.7677716985
34711737.4204736724
1358363251.6277322769
684800.6027522199
10641616.3888653778
-64514.9154616721
-17388.0129705168
1991406.4569575246
4839562.6790337749
-2017069.8251000000
353864.3685241394
44674539.8358193114
-29699.4971900000
317372339.4082591534
-644723.1245578140
-1107544.2934085173
601953.3280536482
45774180.4143000469
73551.9305950000
392320032.8793480992
2479999.8616499365
-898508.2756375002
-889803.5936344938
28149619.4469856322
-31246.9472837500
575455161.3810724020
465493.3900527971
-9393.5314410419
1748320.0836512081
23431113.9642533436
-3438662.4005745840
-9701244.3810770754
158821177.6887542903
252638.7799344535
535635901.5530336499
261270.6283549582
214749.1721960960
-2305193.6405168585
6465264.8723383229
1086903.0388583234
-3394550.3689324241
204105261.1750229001
-320000.7785333635
532920014.2870814800
994625.2729822533
226061.9903371574
-754942.4801717378
-2776921.6883040466
-500670.7481815352
1319742.7773519291
352613948.4020422697
72529.7053650686
874909733.8419893980
59433301.4467797354
-7466514.2735350607
-54721493.2668540776
1159234425.8555107117
-1433866.4042619725
1499218154.9674363136
1850084.4405076001
214440.0777197159
-5516196.1587763205
330893493.4795929193
-86325.6453354603
562317645.7987536192
61731.1129240137
90723.5133791072
44625.9269814720
-3121711.1014427436
-2536292.3257812215
2271429.9599327850
98213099.6299570650
-36435.8754375034
164754734.2856852114
2524513.2549112686
-928195.5714006699
-2534652.1864845962
4065298.0938221170
3233.3351470589
133524945.3568212837
319860.1862649412
-0.7212274800
1373628.9479152397
3697.9504413553
964.5271698816
-301684.5084073305
9.5101297283
1233151.1262721969
3317.9457160176
1087.8380512588
-765865.4035754409
219897.6595490589
-574231.8628255302
69919421.0981643498
-332767.9297513875
696001643.8401683569
-1367002.6684781513
695684.8914145051
15602066.5795472711
404362102.5538718104
699027756.2494484186
-1208815.8825012005
-25564304.1070737429
-16997762.9040561989
35238264.7170428112
755367550.8450478315
-1084293.4936636954
796376160.4937932491
9301311.5741530806
7792578.7564219544
-223906.0504608210
341707601.8145802021
609528.5582400504
1208536889.6191480160
8897624.7702039070
7979884.5981519073
-4081144.4691932378
50351545.8622609079
-61673.8799109387
479577452.1761229038
-143111.3790399575
-268551.3192783967
-489201.4478742680
6777895.2219677670
-2455977.9359444357
-3076579.7856003451
93592867.6808970869
-150419.6002320000
157346942.8229437768
3418743.0378329004
5818944.8350677984
-1265837.7950635208
533589434.0380738974
436355.4305690716
1416438254.5181462765
-3879474.6663643261
43199.0766633678
-7825625.1234617736
560713313.4204691648
-426431.9820444353
1207483600.8920464516
-3398565.6516582821
4029809.9801684767
595563.7537177764
280116760.5026305914
249348.8408399999
562375360.8311091661
-4750652.8108030381
1269955.5733973896
6319500.1606073389
174328659.3836685717
47733810.1954607740
573488740.9487056732
5704587.1110509224
2410829.2772678244
-496959.9981380704
242527854.3282440901
483419.4106762014
1203297241.0557754040
7786958.2826563446
-1470657.4153880889
866928.3516743628
112134441.3224916607
-7766731.4956947472
462612585.2141686082
516753.5816388087
1192688.5539295655
409548.7368831215
15328024.7897948232
-12761.9107313693
80772207.0391051620
1598388.7124352197
321238.6981360982
-871582.7602333407
3831241.6990438062
2800.6584979722
37180456.1371885687
1316091.9133233107
640236.3522637887
-372169.2405042044
41803169.6883005053
-43136.8587069206
117616572.6924122870
5167659.1886046920
737.2610363750
-2781381.2719668215
-295868.0259865171
117599145.1987037659
1085366292.8863508701
4230617.5189800095
-3557169.0497517688
-188486.7988114921
18758363.6699481234
82502.5383364425
202159805.9418498874
5156313.3701656386
-15754961.1849525422
5795912.7447798662
65392.7043816261
537755307.8173683882
452426142.9180114865
638187.2864563070
-3075944.9522224404
4966171.9568100153
652226061.1539857388
-41934.6929474021
292921838.1064679623
-3117729.2131236908
7093959.5673445566
17770097.6571134031
163985421.5037384033
78318.7877509259
274630338.5970976949
-9497448.2626125142
-11930646.6143628620
6672737.5649578953
898199163.1823348999
-16549138.9435740653
1389253150.6642940044
0.6565142800
0.6589933500
0.7998443700
679397017.1156991720
0.7778998600
433125604.7063168883
0.6964878400
0.4161440300
0.5239858500
1053914376.1158792973
0.8851731200
245104803.6764025986
-2598897.5109115820
36335034.1596285254
8879843.6522144601
2234205159.3264861107
-19185529.3403716274
1214197094.0455563068
0.7482978700
0.2377068200
0.7870662400
368073292.9152910709
0.3367894100
216564990.7695406079
-1269391.1920066911
4857734.9637744082
-952236.6240132985
734804420.0125579834
54469.0700874768
252147938.7761485279
4206866.3562484374
3679447.2212732728
1362657.8344751426
2135422712.4485125542
27462489.2207296155
609408295.0079194307
11105369.0727924891
11479482.1877333727
-862722.0870165924
-61172.8106596581
115059151.0965814590
1028867831.7543193102
925482.5172174609
339140.1156584769
1515245.2762720864
-157636.5759010617
394492476.1949741244
850951268.8998084068
-4628042.8550809054
1522385.2887421581
-11843837.8659774400
100753513.3602705300
129363246.2087122351
-1866874.3408514396
-1016854.1541551922
-7958396.9849008853
96133552.2241810262
112320050.4635268301
-4604014.7911056420
103762.1771098630
-153745.5499357392
89798779.4264586419
-37270.2962095589
503724673.8839486241
-5131662.3683540439
-1528843.1093053757
-11995326.1272840463
126710474.7145744711
102945802.2434076518
-286551.7846305027
-3469580.1315456112
-422138.9084413962
78494885.1848581731
155349524.2557080090
0.2604503100
0.0095572300
0.2945431700
60850199.2234459892
0.9737532100
215231276.0755288899
20149351.0437519923
-1661234.2191139150
1037462.3326695028
268339712.3860086203
288343560.1171320677
21428224.6425117180
-571023.1734944204
15612165.6707502287
218844886.4411020875
240536202.4588710070
12599025.3447237778
-186812.4299750513
-10250142.8090177942
157705293.8970810175
312167767.2706729174
-55652917.0875311792
-41381059.8981383517
73421624.8518848121
1630088984.0078275204
-7242971.7166395644
2848945849.3742227554
-9332809.4486144111
4234690.9337765137
5097290.3991874922
97736117.1146977395
143285071.5250891745
5208577.8064131346
2775166.2390020988
-9572122.7876097299
158091154.6932853162
125602131.2924394906
0.0993689200
0.0541991400
0.1127198700
535978258.6572949290
0.7685473800
530564939.3712341785
-41963610.8495813906
5582847.7335868124
57818953.5211493149
831076151.8718502522
5151913.1519347392
1653737591.7319414616
3049311.6247456381
3367220.9017415112
1189134.9281831714
548687402.3239673376
-105795.5910494887
1807911951.3789236546
0.0792882100
0.0529582100
0.2954562900
289426587.2864453197
0.1563459200
65490890.9140886739
19254550.2938126437
5307523.5197398178
-2246044.0145959985
246748892.4811993241
-4987359.5415854333
2612259437.7787652016
-50476682.2341161519
5267882.9936301913
47565535.7443331257
1337928988.7852661610
1345547.8120628381
1745080174.4334135056
19223073.5491674542
13720703.8751673419
-9929371.9925994184
1400147064.4547309875
361436.4010073759
2814328806.5272693634
1901345.1824923072
1001756.0393926430
-1261483.4714766850
47456171.8233737051
-52679.4941200000
90921181.2235636264
-2089958.8718846268
-1596960.5112214475
159617.2774017017
76114556.8393075913
36629.0076212500
262573786.1555777490
3166943.4351782724
-401481.9805764385
-306576.2636175527
20450175.3868374005
-52952.5723650000
334882692.0215185285
-1239285.9014155068
305352.2308410087
-2424980.8771926742
145321.0392544151
1112492.7102373196
-434171.2000354206
129159140.8416445702
-66195.7649980000
348940510.7535386682
2697279.6499371193
1764384.9769003321
-2739714.8730001585
26065139.7467438951
-5442.9296900000
254441675.9597070813
439434.4759853955
81654.0362590096
1121181.5000188309
5804137.2596411090
-4893267.2922657197
-1510067.5510044328
120625824.3297947049
145973.6840833524
725778512.0236546993
209580.2016360933
95261.9918987373
1403519.4719451885
-768559.0830117320
2995611.9125927608
-1971965.0497307258
273861046.7919559479
157077.4193862489
31167156.2139285170
21786.3077290927
126777.8047979280
364079.5927124299
902724.6014237391
133185.5655804780
152602.7089073891
6176096.2946856152
-1641373.9812000976
-3410480.0341962501
154368380.5599079430
-82403.5571333411
239796610.8143764734
-4195417.1815185873
2202171.5937025878
1779994.7673091581
354076875.8043204546
123633.4075739341
817205663.6482642889
837404.5705711676
24465.8803101414
1513511.2284693664
2223257.6028767866
5440141.2537463820
-234745.6336207563
418927907.4587784410
97822.1006562605
679033024.6773456335
-1484284.7280613189
-135414.8080191763
-1333580.9796178208
14003841.2861233577
1100076.9348390317
-6773615.2014058158
403477004.6480056643
14292.5462166419
1181015573.3594546318
8963486.6588717531
-4816840.5440981016
-9344041.0931290388
374093438.7970952988
83446.8372420593
328437554.5851601958
1183090.6411987147
3619616.6993231755
746541.8415909325
63040062.5387823656
166587.5717916824
122438892.9055619389
-2345041.7557154275
1715559.1103320371
27795029.2395148166
14348962.0347036887
-16189485.1539159734
194457670.9413862228
-1769487.9452319839
1195895539.9870562553
15889948.4183304049
10585277.0553067215
-30288193.0019701272
1004876797.5070308447
1334522.6788995180
1138421910.4721789360
3584949.1935530496
6067995.2265382167
-2075073.3529178344
352962607.4729084969
-18914.3920815634
549520186.4654885530
-832285.3525095925
-194435.1020268598
822978.0543826881
-11843897.1097503603
-26660.0970215099
11427130.6094251499
690231887.9381109476
17363.5939999284
740299754.7570024729
-1948616.1805386227
-3765203.6356049567
242754.8811876712
386027473.3960866332
11990.9956690733
390340073.6749904156
-13576916.0233353674
-3425407.3233128777
28776545.9220968634
638587883.2751342058
-1342481.3046861896
3051931.0316742337
-25389095.4763471559
11633842.3193345312
16245863.1740844958
653745429.9152354002
58852.0373178899
1378638660.2999689579
12493420.2733105719
9191708.0384658091
-9319395.1616342850
649547954.6213328838
-516756.8930499243
184583565.8182467818
-1017089.7721134451
1031002.1085076070
760042.8724213323
38742408.9864261076
20621.1222967091
176178370.2984054983
637436.6876294016
-213613.1071887325
-1538276.8515207847
18135165.7747505717
12268.2829557319
142683223.3101563454
-10185233.8729520533
-15107407.9142264370
3009577.9671889385
252961.3007949979
197980036.8277943730
910825634.0810835361
-76741899.2944043577
7738311.9614821430
13928467.2964504566
1702568321.2607276440
31941048.8834353611
3242572300.8903522491
-5714944.5700083850
1320209.6898994169
162142.6750253569
4486375.0333843539
-50242.1346966505
160884921.2582132518
-15676833.2395816091
-5060517.1942576664
9907356.1045132540
160546.9296643126
276390932.3973578215
10270868.7723641954
-12822150.2389935385
6238764.5848512379
-2995549.7129824916
1595568636.5742738247
36127678.0652535185
641300891.3371617794
-8235464.2170926798
95934214.7250707448
-26861479.7710248008
-48235785.5409051701
852788749.2694941759
7755591620.7960863113
0.1807342800
0.7717268800
0.3838699500
234915313.6496731043
0.5261001000
611581130.9179989100
8427887.4262480754
-134661428.3206492364
22997747.4232378639
472830102.4175036550
-10166687.2150771972
627324070.7325328588
-25947845.5122826025
-32875515.8951031938
58347852.2756357864
2774139651.4218897820
45469023.0904963166
972035613.3893790245
4334778.1242289925
-15493597.0903800540
2715369.1372012743
75971.9688603623
142892019.1681602597
1168847299.1559541225
5350687.5264936751
-9510365.2662123423
7747523.5861489810
-19287.0214134278
356579007.4735344648
445678245.4291957617
-13475112.8664828967
10416633.9395934977
9507670.1642220132
494930316.0300032496
-59458.9114035225
364934828.2308695912
-96588.1553007758
1221230.8804835670
12441211.5800448377
201571963.2093845308
68798425.7522182167
9761430.4521485865
540433.1405513990
-1685357.9254366211
137543045.6527360380
64502511.5400303379
-16359619.9975512717
-1384944.3189186882
6349628.9801226361
218293531.5268286467
103596.8760134463
577334002.4080520868
0.4416680700
0.4004374000
0.2857847100
206430231.7437111735
0.3412691500
53939320.4400551245
-25411028.3622689955
-1371999.0117073637
8339082.0793141676
576667535.0071747303
76711091.9734281003
2113823449.6039326191
-5874213.2864483800
16425997.2751338612
-15617214.9214736111
94818091.2516647279
-108369258.8107785881
652069838.4992755651
-26635868.9164429903
-17624952.7884803414
21254118.7925829925
1938923324.1867749691
46116586.5995534882
740405118.7572708130
20368820.7445244528
4277459.6950959479
-45002863.1929292977
1593093892.8907601833
-472599.0337938456
3040160334.1923084259
636275.3419184926
10162488.7617874444
-9696250.6551886611
394105084.8682427406
143595.5540639203
126009559.4492207915
-7713927.9945055032
5611345.8418494556
6002053.8127374249
104226359.6682212055
98217472.7928907871
1227774973.0812180042
-15856830.1573243551
-11193729.5463198964
15325157.6659250632
400164537.3343344331
-562710.0693607357
291604988.8475287557
-880693.8132380757
-743543.3490420640
24778384.7689016387
1872251982.2768020630
237685753.4874491096
148175011.3493176401
-22712099.9937551357
-13631839.9710524119
13975115.4017732497
712589879.8624877930
1725496.7887869782
2048374888.9753413200
29888605.3366577141
-3957838.4647497023
3531197.5746496990
1304231527.5368807316
398029360.3217940331
10048690.6124818362
953666.7419418731
-1735811.3055518994
2479441.2896272894
233183457.2666828036
69222651.3379899263
-11090.8958561419
3081949.2650591936
-3890832.5445357780
-926372.0057893210
1501855.1185646469
-1210392.0594792718
1791383.2708925372
536772.4873786109
93181512.9679555744
-26844.3193548397
233348696.1139678955
-4424314.2743950989
11738781.2085233070
14067217.8582564536
247193263.6720739901
-271721.9249479420
238911958.6812471151
1731259.8321579667
-1169131.3996671068
2931192.0262302295
101254286.4580784440
1451.5702987500
377922946.2223406434
390850.6042589790
-179171.9717771436
1887253.1802005987
-7832925.7476193430
5824672.5231059119
1555945.3010259641
125486881.7993405163
-157482.6922533525
452424722.6571657658
4096068.7514434545
824721.9606999999
1259039.9344155185
40294057.5595636144
-30312.7506000000
218579459.4415508211
28794.9607233501
-177974.7227253174
4715326.5047431337
-4823375.4607342258
-534840.5479837467
91168573.4294995666
-51827.6713285481
619429001.2114098072
8006555.3114033127
-3029801.1467566541
-724598.9138648333
69393734.7962854654
-220697.0618923464
1169966275.6118853092
-1436780.8079912674
2012658.3346999804
-725963.5602443087
59524175.0271576643
34299.9083954413
114279953.4252876788
681906.7961872627
1637493.9630138222
-1367952.4562545707
-1002843.4953164058
-2969572.6659606104
138614565.5867887139
6975.5269155000
4997961.8769300915
229118.8342717706
-5116691.1114312373
-1908038.5794020970
697433776.6678845882
33106622.3106256090
-58345.8461473694
-296843.9371166619
6069817.7503179004
1432953.6172117058
108565582.6417656541
-150144.6018685036
70327670.7270032912
-1620887.0588495189
2307169.8473918526
3714723.8036925332
54481696.9561686069
75947530.3234540373
-967394.5221128203
7464199.5014872737
-3439641.5009372151
289204862.4918364286
-188353314.8247921169
439409.8071042059
-1802384.6184984990
-12401592.7091208510
668552971.1798982620
34548180.2423099801
172701502.2844299972
4223718.9609980965
-2951591.5086080316
-671446.1993728938
168610254.3932888210
-7457.1512239885
339564558.4696223140
5688092.4908748912
-662179.4186599834
-4156555.3126938408
134859739.1114924252
-105021.9016000099
280044424.5504140854
-13239550.2487925123
-1491211.6775461892
5839883.9117207760
560453342.1321965456
-127722.6486696630
1172471758.2466592789
837503.7577299374
-4487304.3629022660
785932.0368415297
95879147.6000088453
-142199.6537500515
381564619.5476583838
293599.8186374644
22.2839606214
-352070.4459824126
1745.3896349792
3589.0330263063
-1225334.6721555237
97060.4380936189
884113.4278680494
425728.5147772392
-132325.1816977469
1014006.3627182376
5213.4382526981
70928142.1392218471
43493497.2696871161
591149.8769502162
1303292.9530648803
-2586356.3390970351
112384083.4254838973
12239.9719275275
47223986.4134178087
1114457.9662132384
409420.5267998936
-3634653.7111661145
156849575.3167008162
-425.6334225000
15518046.2890093587
548019.6138694036
-19.4813565902
-968804.5103220049
3292.9694955946
8329.8785635438
7531914.3521424597
-1184393.8733291652
4728746.0949107138
176468998.1386645138
22890207.9248088598
230672342.8914974034
-514137.8968605566
79.9481955573
-79193.0814127433
1214.0191023252
3888.0236805303
2244170.1609543986
5937178.3522640942
-1131730.3390443574
81378881.8063533604
375737.4632846303
843936413.7407857180
9706443.1651611552
14579740.5171674713
-11488052.6984722614
459126003.5060351491
907626.0954790981
943283514.7494385242
0.2153108300
0.0798659000
0.3127271600
266705518.6111986339
38432207.4961529076
0.4428302000
0.0876091100
0.6205901600
0.9986040800
377506417.2376940846
21554552.1338320449
0.0727676000
6852482.8241973296
-472510.1455526187
-2799719.1522306721
91180433.6781565100
180958.7593158770
382382040.3834148645
1074971.9803861987
212636.7414286818
498165.9760493984
-341020.2212698506
57733.4037492432
-1717827.2350682775
117046379.0256278813
-1000.4057345711
108695475.1639246345
6608054.9309516754
3669272.4570488129
-25702149.7661152333
848238291.5857955217
1745292.2415118378
777760554.7134716511
22135976.6457665749
-17946432.4032360055
-6789706.8793141237
790713574.0785598755
10524520.0206460785
1442417116.5063097477
-7545446.8901624242
45983.3888772506
7098672.1161405575
138154732.0817057490
116019.9436269348
-19293887.8982164450
108258798.6029213816
-11811142.1732312888
-21626375.7860620730
533572156.8833799958
-25382371.1161245331
3148017115.0317063332
14730773.7169193793
-992479.1068587439
-3292493.1949609909
145855319.5763440132
146689.7896641117
261511699.6393803954
-14404740.7180883251
9789493.4768167175
42253790.1668875366
861418395.7339626551
89245105.7217593491
886661522.1679222584
10801108.7422952019
6101425.4316219315
-67969544.3157941103
2968247112.2668604851
-64449974.5319332927
869184299.9039845467
15145269.3975316472
3703509.6454488449
-3407048.5415816074
248555321.4221083522
-8860730.6940521766
1244022125.8031480312
-5092909.0600239877
-2615867.1153012249
-1238654.1767580309
60377211.5999629050
107480548.0180137604
23535643.8307555020
-4246503.9798824079
2066139.2020717976
158047210.1864157021
86328920.6800384372
901372161.3142468929
-19357526.9000412449
-3987661.0625831792
-4212680.1421734039
898907420.2924619913
34151331.3258120716
861504835.8016527891
-2092863.3230289363
3852412.7041274137
-1590655.8251447058
145546881.9857051969
45497555.0532189906
756411339.6830897331
317191.2522734194
9183896.5232193172
-1268949.4602147480
391024201.6577807069
-99914.0932580330
318650849.4764585495
183355.9579411265
5835760.1177951181
-12018922.3675343655
732597686.4713457823
-9664.3445208260
202559223.7388913631
-9709246.2363996264
-4809085.0366221610
10048746.5851133298
599901043.8600436449
65399.9357719234
169636492.0466983616
2458881.1132954033
143033.5888957054
10794634.3793640230
858979131.0229502916
163371.0018105652
60742250.0946217403
-2797623.1886253464
365586.7379619708
303257.5452755197
497966242.3029736876
-24434.6299078227
73347248.2761905342
-12861862.5462503713
14749.9562624378
6391786.8608291429
1487447475.9769756794
-23793497.3247139677
2237050800.9307584763
0.8484016500
0.3704496000
0.7682687300
732222638.1605366468
0.1996995200
708847254.4141929150
0.9418490400
0.4179919900
0.5020456900
220510006.2650617659
0.8511715800
876576147.3321102858
-24747870.1377488710
46051705.8101692647
57901881.7474469095
4119298368.0889387131
211048474.8788235486
167867913.0350194871
-27666466.2564413808
-10145024.5112115517
3398165.5812899512
235638207.1552563608
2728864.7864426589
831091818.0207062960
-66585.7487483711
11715253.2599693444
23194257.6321761720
1844263812.2535116673
531014.1784115009
1534187258.2037525177
0.7564548200
0.7115544500
0.7871865800
99512613.0662711561
0.6019799100
41948556.4464412481
-24659.6833289625
-411253.6885473118
-1033946.2793564734
101225473.0746302009
-64783.3853104196
55671144.4170194641
466041.9050581077
-2406614.4700052468
3002542.2839123793
322867145.8644810915
160753866.4744220972
-45556.3134631641
0.7280669700
0.8921195500
0.5187536100
192066934.2978787720
0.9523470900
105047812.7167986333
39326554.8121140078
-11380289.6655790638
-75774757.9552091807
1055706373.7880811691
-165035130.6604967415
114821917.0017512143
-56099727.4381761476
7754961.0422962364
-1901118.2901644199
-98657915.3468259871
-540873592.3349852562
4199020003.7715682983
3761017.2569561950
5789947.4116968922
-6249335.2816532785
26350941.1315436959
91058492.4765703380
1080851583.8767025471
-29258773.6033995524
6510839.6906823106
57077207.6535747945
563893167.5410625935
3124035.8620580612
1939727302.9141049385
-4847620.0411634259
3579329.9304440580
-50986024.1675622612
559474636.5857746601
-420231202.5678719878
151018246.0837571025
-5878331.7844511811
19391613.5613626018
-35243.9858988944
778187735.8303041458
-1616053.0667161138
3809990624.0905222893
4385146.8022093158
2681316.1701004612
7717685.3638614332
103030299.8391808569
132082077.0754938722
-6007199.3736974280
850476.5744886989
-9201404.2878611218
79352430.8426946849
140524692.9473389089
1183318.9859196034
-1763917.8850526416
2012065.9677592821
49355053.8441760316
89005428.1729706675
-2235294.4430546029
-2083333.6756464613
-2667365.7006547917
72612376.4485489130
21870.5607037500
237108686.7905481458
442787.7789534004
-1498846.5302625000
488539.4691714637
35037869.6284782961
14602.3319227500
19896062.9721369632
656697.1912913305
-13404.2708245138
-809653.6798538496
12089350.4558146484
1702878.6666360693
6872855.6721051177
262819891.9329340756
285903359.1045663953
-1677708.2395392808
2417181.2310074987
11086388.7713026740
112701849.8442818075
127951453.1663195789
-10414491.1157393474
-1306552.6546684599
8149410.7592117423
434761691.0256642699
335430797.4941856265
-15334974.2211061437
-4285700.5523271719
8843609.4179738946
212670521.1507147551
72998726.1718619019
8289573.8417518297
3542298.8168538767
11593331.2871259321
165134893.9272602499
72272410.3325062394
18192764.3513659425
4253971.2027909458
-16912745.2933133841
928357712.7852315903
44908.1222121693
417542022.3001150489
2851069.4476239886
-1204055.5716017771
-14774868.4762457591
140022671.2127990723
272169714.4168227315
3800238.3142090398
-1182295.3593489737
6544338.7774122357
44542041.8549818918
150859330.9641969800
7356443.9858652400
-2237449.9917231607
12347682.6028415728
201596803.3024882376
313477513.7647876143
9476692.0658227336
-165821.1696725161
-10920137.4642441086
155698233.6698274016
316451121.9886389375
41495438.1507813931
-24774369.3161263652
-1791803.2508521336
383409202.2287135720
858253018.0600266457
1201078378.6793541908
362553.0373808274
1254979.5772713306
-119670.3093472808
25857040.5342261121
-132837.8703541063
166186141.8332266808
1631805.8660124706
658421.8562536953
-224248.3042199617
68771608.4603515714
-9015.8717978133
233688191.8601842225
1215776.5536558838
-1336862.9733238756
-457124.5513761921
40473086.2334242761
38056.8965172935
111727878.3897772282
6009284.3272501742
-11714784.8735710010
-17767436.8532213755
160589802.5597816408
321172.1974582501
159077129.0988181531
-1229522.3673350664
-130140.4355395113
-534639.3681885533
848648.7986624016
-566939.3185748525
-1885658.9350572799
74010372.5658770949
-14965.7008215000
10905295.0122591779
45438562.0458944812
-18490298.1932251826
-47350140.2739925683
2186690449.6619000435
-196253905.6255032420
2191216299.3806881905
-1703054.8133111456
6522532.9062968222
289730.1703493239
98785012.5671084970
166790.0848283904
491211698.6807705760
-5166339.3011410385
86398.5517304653
2510756.3890004470
156290542.9581351578
-103529.0618244929
450315223.8192292452
-246394.3168951121
56805.8076012519
-354761.2322569811
850759.1944544746
91813.7244934475
850960.7249262873
-1769159.4378987311
-958715.7193875000
-1330018.5459172365
103678953.1541938037
9216.1275277500
14509255.6287329253
290534.3734238680
3420599.5689123706
-4256541.8854786362
154014661.4523237348
3796.1586877500
39247840.2434758469
-788368.3138253269
53017.6939377397
-270659.4028110730
1529004.9742885155
1663530.3508618949
222285.1684527518
187765191.3179203868
-32240.1392430000
19367726.4666233025
656455.7975113851
2711720.6874115169
-3351812.4574229871
196701333.6399511099
3541.0656352500
53151080.7955550477
-1114768.6661024396
-164057.9371923579
1706324.5539949245
223713801.2549768686
-268.6624886865
224303693.2965088189
1028217.5164711240
-0.4194897544
362032.9931161730
639.2331670559
1970.7444176048
403933.0409241546
-51.1897149646
-166305.6713530246
1673.4112899261
1509.2463052154
87408.6759825503
-235645.1828580468
-139940.1925928587
20097246.1611818261
60137.6476289361
32220151.4843195528
-167858.9759981051
2274380.2021920150
1605289.1449442930
173413281.2546209693
13106.6644540536
97302680.9606539309
2471221.3315074421
7268114.2912002504
-3569208.7862175442
1139473258.4031684399
-20411.9082434732
447862025.7990594506
-697454.6719190555
154.9735859659
1137649.9219830756
5524.5393168243
33.3033525316
-749849.4560695855
-118.1653579399
-2944140.0897855647
8594.7797927218
6729.2911569496
9301160.4390366599
1567289.4149681656
4762279.7834651172
159978995.8924896121
279338712.0707843304
1162127.5451208837
-8600465.2063003816
485812.6518440805
459935875.3094186187
682882528.6217713356
4410729.0225652074
-2477934.4854906728
1383800.0411555050
122447834.2941404879
186890154.4878293872
17254182.4208266325
35216784.7639195547
-1111572.0625627087
-433919416.4035692811
711942490.6146560907
6202502186.3356542587
1726678.5085158290
411512.2853766746
-637581.9186555968
49149942.8491037190
-81146.5702258323
1032683242.7891128063
-13708285.5099987611
51122829.3452919871
10480263.6928262524
2047626178.5039899349
10656342.4525271151
186061543.9576657712
388502.3450830985
20.9123939661
1097773.3600196978
3241.2557756455
7831.1965948530
605737.5453231963
598522.2498750214
-230720.2235441328
11349082.5000959989
-19128.6862880932
65785715.0777549669
-1175870.5225982161
-214778.4952964171
78085.5558022706
101934483.9012637883
4253385.9813288655
78406598.8687438965
1908860.7602460040
-2106246.1477506822
-299355.6020146584
192820436.0756981373
21896.1881823503
67468431.9973379076
158121.4547322720
23.6359389461
663027.9854633247
988.7319510464
4324.8877025391
-590490.5951987938
-657578.2523494184
-2901654.3582706978
242904202.1840016544
4960.4950768150
10686263.6577420011
-166807.2099514067
-768966.2617583018
-362835.3379084636
268854426.6587008238
6477.6710212500
33166324.0234416649
868267.4487472379
-8554468.2196932752
-25793139.2416248173
228108802.5172302723
-180718479.9314533174
514346591.4204565883
109863.0249938242
50.9406479881
1245682.7519394262
2675.9101829515
1322.9752731419
-577459.2507950810
-98.2679664050
-1666752.3915518972
7997.8510643551
10879.9325410578
899445.4275787284
59.4557849512
1039143.1001283585
2426.9542852905
744.5948829084
219825.2324607935
-1.1913265250
394647.4973560001
2788.4057018779
3034.1252676945
347946.6154446077
-160615.8871982921
-45961.0667225622
94724922.2628515810
-5314.1473590443
56765691.7439049408
32735.8659109571
6416246.7100393958
8736003.0419395007
618950758.6152197123
76794641.9904243350
30861.8649396916
-120793.0040546430
-157959.0933419156
-4990383.1491078697
561025716.4403223991
27093987.8616145067
-25570.3398419775
64210644.1448816881
-41768547.9549128786
-101190311.1887393147
5461904309.8332748413
-179591220.8990473747
6989166935.1281957626
1209124.4321612166
-3676999.8031388512
-7120093.1957552768
163691698.9633125961
-130798.1561873104
476679808.6970669031
1083867.0448046445
-150134.1910003149
-639526.5293424973
30467289.2328040078
-47780090.4917961061
8937675.6470491327
606922612.9575053453
868145010.6783641577
3113522704.8672661781
24139552.1598391570
-26834001.6427134499
1308046.2475644858
-8546390.1983272620
430879305.0046766996
1867261520.8949890137
-157070870.3557104170
34860806.2139023766
159612683.4757784307
2274956084.6373167038
-41491259.3291150928
5341350844.4862461090
-4463636.6989262719
3081575.9921610532
6958483.7182149645
213955895.9503878355
1205703.8090151988
193034053.7009167671
-58308300.1085171252
-4633740.5455925576
31629773.7238692604
4218573284.9554786682
-74405992.0913501531
3189089925.6906080246
-23168369.5531798005
25719508.6375726499
-5844995.1165451072
334299749.6282601357
-33408705.5914953351
106386182.8617423773
-9794882.0071874205
-3940359.0908455411
-16065883.2956784610
922820851.9080088139
26654883.1529048197
1504409331.7917504311
138459668.8425200582
-47248167.4893250391
4814013.5026185978
601381085.2509585619
2154611118.0028014183
8552405340.9076776505
81257.8099900911
-6791239.1337994616
4720805.0801723748
900289404.5281696320
54310868.2154785991
184708.6452245759
450208.9879448169
4455911.4366029184
-6355744.9952818779
1088923093.0072290897
61185879.4917430133
-51807.7331979736
3134233.2743976191
1119109.0126341456
600970.1078117175
80685062.8502530158
150938426.6221105754
-7498696.0935810069
8311657.1165938163
-7512387.1949131824
274401573.4867189527
35230970.9867106676
1579690.3140980478
-6050996.5254542800
6981694.8669699095
388856984.8911605477
284813715.1055131555
-3462173.0872410899
-894836.4380415983
3486640.8553943257
94275411.5480986387
132205340.4393125027
74090602.1332585663
-36216643.6948062629
6168818.4806843605
631107472.0049641132
1359947286.9017868042
1137001073.6003952026
-1348741.7501787764
982747.7288963408
-5396783.1199090555
56071677.0545665622
137558415.5435416102
0.5720033900
0.8611251400
0.9811503700
114461123.3167214096
0.2240166700
18586063.3986765444
6852242.7947451910
7999551.0059855133
6892655.7035137927
877418973.0846838951
-6032.0623343750
268406899.6524134874
13437981.3770230226
-953266.6869274005
10525254.1841438059
137706031.1896484792
195641151.5494832098
1942395.4006398185
5873493.8663895214
-1035505.4833960051
232423079.0371655822
77403503.1728584170
7102759.1210589260
-56545325.8186953515
-1516883.0767759914
109927909.9080441594
-4200.7361401046
226115057.4694735110
-29308831.5315148160
-2409050.1359402551
-3031561.9684334858
255746687.4287609756
288730448.1896997094
-13292989.8295635171
-11824978.5800746791
-14036651.5792194735
1558926669.9962043762
66144132.5182720721
1406681265.8537731171
-7835538.1547496766
3403388.2368738116
11470115.3694438357
50135743.5783196166
95438856.6195426732
7343448.7236108528
1201626.8810421412
3180486.4337278381
74628996.8224859238
411205020.4334663153
-2552845.6210983461
3266025.8104260075
-2289403.0125977597
209225463.3325076699
33281.4732251391
290565644.4047710299
12115130.5841354541
-2187206.4455506960
3028728.3825614364
55965152.3444080204
154344728.2458817065
1227340680.8405621052
6031969.5738258613
-1594735.2947062268
-833091.3800160373
411724562.2896620631
-32490.2004349324
419577616.9853568077
0.6292399700
0.0246650100
0.1546386600
297380139.4428986311
0.6189135200
33212028.2039322555
4571108.8919003718
11586441.7871933877
3405535.1135981181
1064882660.0229455233
-98080.9324535835
106459645.3795983493
-4470310.9407666484
3619389.1457187971
-2400409.9591207094
206690599.0316201150
55494167.8514498249
-10933162.8537580483
1853853.5380822679
-4358529.8401910784
159430946.8392591774
19071.4909826959
151231740.6804993153
0.9477272200
0.4434248200
0.3382778700
126391860.4299772531
0.7722024500
30758859.7863015831
12220093.8696247470
-5283520.8178893905
-9426848.5796065200
968725648.3459116220
-104501.8559681250
468651854.1969177127
0.4659042800
0.4731083800
0.9419932000
183149271.9900147319
0.4261151800
79855242.5729963481
-3025341.9404974501
-1664444.5870906501
251973.1595561602
268512143.8027929664
133236432.1836870015
875179625.7193955183
-42807453.8380915076
20363771.6216970272
7043514.7719678441
441599482.2752419710
1189023.1725305947
3390701029.5886902809
1370608.3977429492
-36501721.1658441499
-33467319.2121784985
4040879160.4490652084
-168923717.5656227171
420672579.7923848629
-32562901.3842672035
-15687528.0066584721
7408052.4706395613
1595558891.2143225670
3361326.1908767382
3824204181.2310085297
10419612.4709788952
1548468.4934181394
-4172318.2661510855
184866822.5059703887
360923258.2658105493
1341429.3221765994
38948.2544806748
2884300.3420687304
114083826.5561077744
63933.8218655235
124380061.0339755267
10167576.9253234472
-1997919.0167882305
-365267.4829996376
115505475.2171917409
131198884.5021200776
-7514258.7314523226
-2887430.4322199854
-1605558.6535538151
44068699.7317215800
162983745.8950613439
3355104.9311817037
-1616177.2230309243
-3643921.1235233387
309656179.5787931681
304547.7455376619
164152853.9964816570
-617664.9819139958
-39325365.0551536903
2045583.8457143717
981956123.0370963812
1092147.1568840160
389478732.8211556077
66182504.1509493589
8541730.8962679412
-43825277.2830808833
1164259551.6072907448
646464181.3306276798
920149802.7302372456
49964929.6762235090
724763.9027198501
-18081820.5244167969
564431494.8225728273
-41274022.5199504644
2361707923.4948701859
-41219217.3452202529
9527855.5864316225
-1506706.7662836830
-121126455.2502267361
-319260400.5081892610
2810116754.0738229752
-16079724.5460615661
-6072875.5140999518
-8983534.2102994211
441026981.8660697341
260844946.0004574358
23944965.4034774788
3167553.9175231406
2347646.0350934723
134591900.2411923110
325859391.0681230426
-17630357.9906871580
-4302169.4498210773
6731393.9611566225
146359336.3421547711
219546372.0716366768
-606713.7987845065
-3545517.4570734981
-3977692.0035339925
29945211.4707374424
105907469.9069999754
-183514697.6383015215
65948620.8416342065
-4016869.4182674019
-838830063.3201458454
-2152878408.0681595802
1122166514.9774727821
-2656610.2314642710
361774.7448969962
-1702709.0894904998
165143904.1138243079
9143.7990930000
7685954.9925531046
545255.1829954721
190770.8533441743
-5850669.7898732033
326735223.8348621130
-32679.2076682500
41247059.8019660786
-3850555.4895569831
1942814.1924522016
6434001.9940959243
380334947.1757135391
-32174.2773830844
110452086.6126327813
-765763.5437277427
-494392.7399994190
-18694989.5707018413
237134311.3815950751
211395418.9918791950
3864191.8474217383
-1691606.2407866369
-10811295.3700581305
244508553.0873606503
354273182.6403084397
-5719645.2979995105
-2154426.0208100877
-16209746.1298725214
249952171.4748941362
211458231.7729374170
35091513.7445363775
-11723575.1217692569
-2037150.0098841754
242427140.6902289391
421589250.5112375021
2126719877.5465166569
7766285.3810161529
-1767224.8395751817
11921489.0671957172
116109599.5248035342
102911597.4193270355
-5648064.0876002014
-1509860.9335489403
7036647.6964262882
80410654.4934930652
139353835.5889675617
-16250747.0309006870
17490489.1280438192
-45769192.1992134377
2539057263.9683036804
-739438376.8923236132
1842114319.9610009193
1463244.5831451109
-192053.5746017076
-100026.1606434422
24037745.6170847677
61088.7943683894
103754095.3936499357
1229307.0230016848
8364149.7839130852
-16446958.5353416894
136082747.2174393237
29987.2324545452
27793567.1398589686
-2164455.3769938275
-923582.2857609515
2617302.8840205153
3354163.1264884393
2016289.3201295359
-6257215.7155494215
11864485.8679388966
-84679.8216275000
576422587.1658208370
265462577.4122911692
-730639.8311568836
665308.5935862213
-1394789.8214839180
165670525.5326066911
33151.0710765000
16894026.2389037088
65693655.6194024757
44891304.5985367522
-53688524.9813195243
6546524457.9810562134
112981544.4734430015
6510214905.5479946136
-82975118.5129036605
-25398047.0617845878
49291477.5374946445
3560722123.8209557533
2522980.9423693772
-1713330308.5855662823
4081774.9067375730
637098.2038034895
-2016203.6405091905
52753349.7899577469
24199.0662127500
6756992.1464491487
479766.6735849940
-2785738.0451585161
2921032.8753533391
328141989.7726910710
-16623.1714398750
22089105.4848275371
1255523.8965114725
-2321129.4772875849
-3847761.8224793393
195166077.1324817240
26802.1720395000
57179269.5001598299
-2228194.7528803032
-3041103.7010731725
3406324.4846386332
281478995.6485854387
-26597.4739923750
27232437.1248855069
-569516.6221969476
448245.5303558212
-1083062.0725846556
140135742.2038743198
-27446.5927300405
25037445.1413222924
1224732.1424613595
3.4913698612
336818.9892107301
1211.5750786704
3148.1003288901
-383846.3562192706
51.8576814335
-1087628.9303928469
1263.4436658981
6133.9791933992
1287427.0506287338
-1436456.9530520265
-280219.1418966873
533586927.3901767731
7657951.2325741053
69205797.3334178478
-783667.0980333252
-8.3430847796
258372.1933885251
973.2809373400
1865.0120229109
337125.5594340313
46000.1061052658
-1087490.0977361505
186842449.0932719409
9679.7472778529
21889629.5919241682
-1457979.6916125217
-1.9231909051
-1307985.5676548369
3943.6861487930
4410.5209915083
782675.2786380337
-32.5366792785
1366330.2974770772
4130.1625729672
4650.1505985090
1476766.4372282939
-44.8813744526
1023918.9129470526
2351.3435844351
1929.4162322489
-724786.8462354651
-38.2802247508
-279125.8412514820
2399.6826264632
2904.3648264037
-79448115.5195375830
30724814.9720196687
-20278435.3491105624
3661787938.0497908592
-1048757393.7487283945
361357685.2161043286
47074658.9495646581
39125257.5916740969
-77846169.3303038180
3240687855.2418532372
-67107.1388996836
1008991417.2571148872
-745016.5775770863
-985967.0224624841
1578240.0393459180
21428235.9744255468
41976.3504228097
142794968.6732248068
1658390.9416784742
37.0522561800
189994.0594190101
3861.8357274046
3873.7089684908
-306067.9997630675
33.7259267178
-376951.2022761423
4114.8287663029
6393.5484818465
-541402.5435031296
-16.4801151756
-1282939.0376606977
4113.7514584330
3457.5667675608
433521.7178761880
-42.5799300693
283150.0881046387
2417.0147280902
2309.4249067670
-30008515.0379555412
-2113256.1272318149
-475768.6902608462
26876322.5263196342
-376108040.3484388590
467053550.8487413526
2245190.3457885957
347153.6988586629
-4538729.6624258477
526043915.4410612583
3316553.3863116084
-253027.1013476252
67953450.0928244442
15094116.8757090531
-82896129.1619952321
1726488180.9454941750
-388712.2924919107
1065437905.3098233938
-1669350.5236299827
-275105.1232203852
976962.9695179068
29008.2344186733
31980286.5384091884
12369768.1808720306
32620630.7786464877
-5172604.2203796757
30996882.1623849832
3228840349.1006255150
508806919.9571616054
665857754.5126904249
452673.3681142341
-33258314.0435099788
1688984.4886746549
521081039.9225512743
492430976.9318548441
522245679.5977025628
-7157436.6547945738
18604838.2489056885
18141690.1160075814
1988092670.8242216110
396012.5385015800
828061696.8936792612
-1077025.9707188366
-507731.1728403849
-595471.4520259417
38561266.6525309160
32905.4850924672
6165406.3873509075
1618207.4695700950
-6.2578583415
-1977279.0255405172
5245.0490910711
3690.2923076352
1341172.3370478125
-42.5053271941
1235301.7650372211
6420.7066622419
5373.4255038197
-1305782.7921898842
-18.0398899824
986149.8278254280
3343.9130652040
3390.8539258253
18786915.2968159690
-1237197.8013958395
68324.4601395177
15742237.1753741968
244916908.9814534485
270348703.5653186440
527643.5605420964
-39.1260353425
170345.4462198358
1901.9228853276
2040.3389550636
-550164.1439668105
-22.8269651967
-524998.7584731008
1297.2206479526
4096.0913017554
0.1900759300
0.0197161900
0.1860254800
7339266820.0281066895
28935635.7648606487
1294269514.3128991127
-446532.9054379152
-1563296.6173423051
8659669.8767975383
450092202.1134158969
67796397.2713342905
26834.8200414058
92136.4075251512
1906596.4234376128
7528899.8620638773
285612978.2779333591
68513676.0739809424
16248.1246737371
0.7271665900
0.6143007100
0.3003341300
8697434844.6922073364
6532449181.2038936615
0.7509731600
0.4984408800
0.9645607000
7671360695.3283376694
29297222.7257589400
5144240551.8121271133
0.3838202800
0.4372692600
0.4984146800
8841497361.5683231354
5821344199.9414291382
0.4917578000
0.9723752600
0.6547328500
3369443633.5422058105
2440077519.5959763527
0.5924938500
0.7170722500
0.2049413100
0.2696741100
2255850.8909595022
2250365.0792011656
-5862801.5276308320
-21200349.1411753707
39292514.9546059668
7144750296.2034921646
339371520.9800496697
4731647919.1842327118
-72862.8173127985
-1122344.0869714480
-765921.2694814965
-3114496.9185032514
3154222.3233658420
-112835.4949937515
9544399.1354375537
11175924.5142683145
6399503.4014071664
-4804717.6843399927
9783471.8427009191
2365912096.4672160149
-113573469.6395152509
461251847.7550224066
101573811.5021128207
16918297.8670829386
-141504703.9277289212
1393815037.3090336323
-773408439.5891636610
2839090742.7429342270
-32078241.3202550001
-18504276.3992644362
29826441.7150590345
6795631207.9150009155
534417372.4382347465
7518155262.1155624390
-15528466.7468441520
-13983582.9961904306
-34716295.3006071001
1493658813.4784018993
-246240293.0786023736
1024768940.4472016096
-7180034.5636391668
-61168095.0865019634
13002152.8862574995
1187634083.5497665405
1064051283.3391180038
302551742.1757121086
-383787.9903521583
-31040212.6212121472
5193620.9501132919
730127808.6156185865
828557.3605231483
718280430.6119319201
36656961.3377210125
-77355969.1841887385
27581163.1126494966
11498872238.9987792969
4674928623.2281522751
-149566.1166892527
688943.5417512752
1645975.5815269039
485022567.1155240536
53305853.8495984674
149590.2668496120
545728.8288985785
-8124761.9390526786
7483423.6604295466
988070539.2689042091
28091770.4172498137
114648.5694313350
-7041425.4116802812
1122282.7739495160
-10622132.7391967159
237306139.1683445275
299909149.1382734776
5934870.6317085624
-747480.6310167264
20593158.3819230460
214464492.1522807479
338337513.7014417052
99118740.8930318207
-14336954.9413670711
-3509392.1896861214
240814133.8806895614
1485370094.1842164993
1859259131.0500206947
-13381216.0691641439
1940173.2593013211
10628078.3899238463
96619161.2996455729
164015852.7746674418
-6024.5277266546
-4609122.9591105664
13706350.6977466624
225500078.3162435293
129589286.4324649572
1511432.9817017650
-754881.7182068982
-4416633.9847361166
112675123.9162858874
154449729.3522310853
-31085455.3915236033
41649802.3256649002
42263665.7076363191
4956011486.6120481491
3991947.2073033168
1603853913.8097305298
195554318.2853628695
-63884970.2923249081
7731172.7922033314
905008631.4530131817
2653913525.1299543381
3466980584.8354587555
3646537.5412710416
-3366391.5375037347
3194997.6789215328
387619661.9499608278
174850620.2893069685
15520706.6057047825
-1740085.8928741685
-3099531.6709783883
282511821.8149574399
326380329.3110390306
-1475120.0772105886
-3050070.5868871869
10693861.7508276086
339502604.5400563478
167035798.1968115866
40805874.4979553670
-13984902.9223694298
-2837311.1846491708
281463117.7728155851
529869715.1986191869
2788956053.3252668381
1318432.9966738368
-1655024.3663935803
-841998.9523353012
111238811.9154854864
68936859.5066445917
-5537768.4898710353
-2116319.9646877102
2738731.0786740864
74819685.9842773229
206151151.1367058158
-9890283.7550569102
17011732.3454732485
9913848.0864307173
1374995896.1071991920
1989655.0185235958
777910702.6015887260
5990369.2039118456
18163149.6784247346
1366845.6689947369
688016038.3665573597
-278715158.2187150717
1467147273.9767158031
13835885.4083961863
-83808785.2591792792
-19280384.4782354087
1292845930.2813005447
846547018.0677800179
181068519.7717337012
-2909423.2752848822
5567466.6605115281
-6629846.9000791525
693667567.7471625805
45032.3843517149
208893679.5675448775
-5346528.8498441065
4980062.1451689452
-8301789.2414349141
448599070.0190421343
-5557.4886743750
127877597.0040345639
0.3997001400
0.4032266200
0.6525435200
20436863.5894763209
0.4730086400
25186591.6172639504
-189495.2219940954
8774534.4120061956
1807914.7473715728
296025447.5692833662
98627053.3507751226
-1582035.2946678312
2365030.4426084906
4665891.0301994327
83576760.5617246330
43802549.2287838608
1479238.9619043572
-7258234.1408581398
722926.3172022844
383665331.3346881270
238990386.2072880566
-565951.5024262861
-1714894.6383909935
-1391713.7448203065
74363714.0983010978
84437542.2511776835
12742273.6258847583
-1443695.3022677810
7463366.6655524373
289283192.0475579500
21514.8101655191
347468969.1895800233
-5774045.0818449231
-4763223.1036604373
-7332017.8913614936
1266396184.5274045467
77386805.5028210580
1047364781.0954861641
3096826.3014021306
4156178.7852244875
4910182.7015905473
163787856.5720027387
119378176.7332734317
0.5080194300
0.4765875300
0.8365882100
268890511.1882849336
0.9340142600
93914303.8115505427
9318196.0499773342
2267192.6756179398
-3256472.8428429104
264104363.0500665009
-58963.6004785811
355228235.8372297287
5811406.7709713662
2182834.6726809163
-3267447.2515936317
784631916.7077329159
75194.0839964043
392406575.1136084795
8257730.0716670547
-5067100.3359176125
-16578971.5458801966
141242218.7861005962
133514618.9721108377
374246059.8792390227
-981289.3704570840
256742.2687626643
2426866.0888784337
299688336.8419501185
60252.7798377399
126458419.1242476851
0.3949303000
0.4968299100
0.0389713300
66082554.7495103627
0.0284817100
39340720.9845053405
822295.9151792276
2575664.8906825036
7918199.9592567487
234438469.9298611283
87646134.1652198136
-8831622.2917037718
2910211.9706292357
6905779.4509294489
63929739.2286811024
239699101.8204908669
-1903005.2247677562
-7042808.1631671255
702134.6310524776
237622455.3297642767
137696851.5041549504
1288536.6232054881
3595315.8148477697
9289646.7471801937
873983444.8724596500
157796.3744871239
223568002.3569696546
171545.8860260471
-50141851.3442636505
-7419443.6215878054
738634674.6931241751
1225055.7471946089
971246619.9039626122
21716038.7847119905
-22187817.8115608990
17668267.9665754959
947307700.5045962334
119996447.8180141002
3843553320.5772905350
-53551983.7630913630
27695189.3127302341
-721219.3557722622
-349040270.0821883678
-593659121.5836336613
2827081970.3145818710
-105774602.5255110264
47243998.6020641476
-3661540.5415373077
-555071205.9541392326
-1196964633.7721192837
2795495456.9160361290
72788363.2939825356
-42814418.3264146820
-164986.1267671043
687639743.9973151684
1137169978.8017799854
4783214449.8062229156
8853688.6078517549
7572857.8952418566
-30768800.9956044368
798379431.9837224483
-188649.0863004450
400420583.5287174582
-19519543.8696472235
105207507.6723983586
33017202.4446624629
6761096353.9768390656
-800918.5713239249
1290028759.7045385838
5601071.1856896747
6510008.3788681272
-1638795.1404794520
2824828129.2298202515
140969544.5432972610
883365306.3840756416
90632865.2964461446
8116452.0117549570
-8977681.4639428519
5431175933.0598840714
1061064565.4660058022
782181964.3408801556
1250897.6448785977
-44348815.5673643872
-5706728.9172482174
780721195.4391674995
1144404.0471693745
1070124174.9272762537
42550744.4490795359
-15022933.3916924726
-20308149.8791338615
850695883.1578147411
561092.5445992588
1955474807.7811865807
2593712.0258309753
4247900.8461959232
-2964995.6641316004
453189928.6656852961
639220.0222663016
192176041.5705120564
1079367.6088895630
-979962.0653680760
6184916.0332184164
302297141.4324464798
7661.9891205000
22245307.1105719320
-396507.2271813768
-482240.9916847702
-1407040.4673877326
46217.3330609073
40730667.2071406916
307334758.3854295611
86121832.4584780037
-35805352.4308890030
-16857164.7073829733
974724548.4731967449
1409384.5546704051
1401950841.4796938896
-10931096.6333610117
-3554662.5909547233
-37270645.8775109574
3345086943.4024758339
-328541608.5109928846
1135364042.3646607399
-5174639.3389567006
30492323.4887249209
40472441.6833647713
3495332436.1938600540
161719.1511787844
1124359639.5389871597
5238626.4055646546
-51222642.7801054493
-4822148.8288344080
499280598.9665017128
439273891.7621158957
369523204.5625018477
48701573.3489174396
-36617932.1843637526
-64153812.2724139914
-2657248258.9783363342
2631085.0862339502
466903872.4928824902
13747714.0420062095
-1092646.8298452750
-87307732.2083347887
2386530045.4542355537
-1160489.0826241912
399452072.3274825811
-1203979.4967466493
-5569105.4466545889
-12019680.3187261820
4763176895.4681949615
3205287.6118621561
369424124.8247884512
75392622.4281471074
107348144.5466703176
19540486.3232777193
6746895422.1504898071
88752889.1036417931
5461858690.8224725723
41756061.5279232189
-11164861.0174436271
-537642.0358882666
121206169.4853197336
606742726.7106372118
751386227.8538688421
-2836022.7528643492
3522162.9473362397
4349513.3239698280
387418101.3463031054
-43680.7505062500
63492854.9964216202
-936241.7445488420
31.5540312968
570439.1690679108
2025.7552669801
966.9335921565
65805684.9100717306
287074.9025139955
1577179.6779889874
90456612.0752185583
-1275449.2742514242
1224382602.4949750900
63180329.6398554221
43503882.5002238527
-65957909.2272135541
963412156.9904493093
1404818.0481895297
700577701.5336989164
-878026.0831323212
986246.8936192018
-915344.4057551670
-6337.0147449244
83127160.3223522007
206598577.5130204260
-21201337.6603952311
10314748.5756443553
-910255.2551759006
-131369652.4281685650
-194939369.8926899433
497460712.4640547037
-50642793.7612136304
-18648622.2454065047
-671149.6461652438
237196497.8460047841
-626460104.0714468956
694954509.2712845802
-5811149.5806263639
73192454.0922367871
29277932.1494275667
2820928325.3719544411
3253647.8318435671
463872694.6258882284
5038903.1942300908
-916786.0017925042
498346.2718419542
-28531.7412137131
102981340.4950246513
123966860.1535541266
754293.2107241594
14.4568793567
-560273.3282337814
7148.1776559260
4568.0493750353
-311375.5057899753
-65673.2033312986
1159319.7452127729
36782.1226144016
37695417.8912507892
358774428.6633540392
-3124371.2961489609
-73034.8151965513
455720.2597341127
539.0861202541
34511673.2035888806
80111881.7774535716
-75321.8905433547
27.0714033488
403312.2926923910
1978.1228020637
1416.4522069343
479023.6490662518
-13.0828937178
2259969.0367156002
6030.7980360760
5102.8169023762
-1236098.6496918192
-0.1445531676
2305077.3134943261
4669.5376433069
3713.5262287058
-946535.6856478469
13.8414604994
-789790.1376109847
4000.8399730285
3195.1103028420
-41250758.9076256976
-37539515.8683554381
62841854.3724131882
608741412.0716545582
-737258.5876688637
655801672.0334815979
-15973840.9066230115
-3691866.2987050163
2414808.6960369255
7365087196.8613834381
-194749840.4560751617
681822717.3511630297
24638.9066651504
344849.5622686847
204.8538156873
-6137.3160672969
11897858.9695365001
487393.3549980031
-1023032.1242107362
9757921.0580539722
-5507672.7884337520
522336660.2984589934
199261677.1626444757
815678.9474580174
245654.0802880096
7224306.4654863896
-5312744.6998482952
997332519.9660454988
30376380.2439332977
166563.2880196935
-1741773.1703645808
4255998.2852248931
2602559.6509741177
607535312.2216355801
34195076.3940688521
628948.4061553851
-160184.6012214870
4622645.3049188526
5637311.5789133394
1419719904.8528232574
178690686.8175611496
33452.7169007374
-1327658.1037781716
-16.9494047524
-912908.8724810062
5989.7305873757
3053.0675341364
1137650.0473536174
-9.3148861092
821645.4045385483
6850.0815373508
4107.9177938837
1280878.7987277852
21.9320144875
439921.6207010000
5719.4981247230
1684.2901316122
-65830266.3729605079
-16077552.9063435663
63025841.9865004718
2792794923.6557984352
452477.4670950955
1261627367.7857294083
-126752.4533788549
5.3728635129
916930.2819105780
3442.5948627259
1115.1934742017
2328283.7540024323
7588104.4632387115
-17989786.7977191471
3449105838.6156716347
-476724.0732496047
362225427.7360262275
-1763459.8684503261
-1692024.0018755058
2769430.5023597018
239469140.8600508273
19902335.3366206549
6859.8692539608
-591575.2694065662
37.5631886279
-723463.7172979933
2828.9881831617
2245.7084489979
4742807.9092732854
-15994712.8574580029
-1104852.8044760001
273441269.3123344183
142743716.6459660530
573105424.7032225132
1081645.6472685745
-29345.9848115646
331769.0689810597
1176621160.2861535549
145369707.1322683096
228331.8236554699
653787.9300159084
0.0370752040
-641501.1995545385
4809.8159703600
3960.4401082834
-1094966.4417627316
-19.2818463820
1753684.6375315166
4578.5066125697
4361.9270888059
-5904661.7451443225
-3863790.7195876595
7935075.2224943815
3789582052.1261482239
17465321.3989669345
1458292156.8012192249
-7744186.5573522737
95040133.0608548969
36052585.8937196508
6208153336.3403720856
1384193.5274213150
1102938401.5716888905
705447.2123398092
784832.2382398847
-897.7186172335
-68493.8359360386
26047421.0805156231
4541529.8025230300
-465724.3817522309
4501428.8768786229
-5138462.2912222752
589647184.9088666439
136531455.3852595389
654840.9771673100
1264549.4217123173
16.5358562281
-1323385.4810165821
6356.9414239665
3083.0619341399
708109.5862519580
-26.6621980406
-978608.3998619331
7189.1137812994
4331.0371453249
-41871.4281995513
-1756329.1697752981
4432627.4157193061
528928150.5276457071
178654022.6299922168
164042.1666868503
267471.8869311829
-6367137.1561745722
3271710.5873976466
1069831353.4796552658
167014331.5944617689
-565262.3578458725
-997838.8887922622
0.3476154491
1020544.0051590319
6474.0014787269
4765.5164531786
-18012079.2418612130
25231106.2261445187
86216296.9355204850
28076298230.4067687988
16818921879.8800334930
720469.0731441083
2417099.7608321956
-5111631.3392131962
389005743.2287042141
71418042.8271156251
216156.8745295205
-1387920.9737856535
220876.9436685026
32.2710401067
3883.7599266870
2522956.9325397569
5152214.1151308091
110056.3937210614
-3106759.1442233003
4682355.1952662682
716817588.9459663630
44384574.2879031077
-225699.3673814127
-132848.4753413780
4208130.2136105429
2220535.6813059268
716565396.1133371592
52082773.2532351911
63416.7561552503
31879550.9863578901
111916640.3797916025
124010435.8432099670
23225947088.4731941223
15126563242.0856380463
86725308.7846696228
94045624.3509306312
87710322.4544189274
25685745436.9825134277
6118299117.3722057343
0.7483189500
0.6393116900
0.0201785300
6456671313.5640888214
3556873298.6471943855
1861098.0596337935
945204.5208209282
21692.3547817420
1882.8129352243
6105362.2823849060
3596881.0555512430
-2712565.4608777356
397982.4971630460
41397715.9090019390
3310115813.6280708313
2197413.8947736081
109645123.3795286417
-9917726.6517491378
20186336.8479415216
8613830.7367948517
713608120.7476298809
776621.8885629587
1017812057.5701602697
-5306717.7142647197
-7410909.9457423491
57286115.4719303325
3054426141.6026892662
420366563.7973276377
1117711406.0628259182
-20865803.5605772398
12635130.9961037505
32256822.0987582020
442751288.5226508975
-1274821.2987400561
627955126.6320425272
-14789402.5855925735
23021710.3684486076
-19048059.8916670904
8719922222.4503173828
739034.5103483810
1808925455.1434252262
-14842172.7841205858
5977633.1422673147
-21795816.6822063290
14999051727.4037532806
395526412.6620139480
927657899.7386716604
20792223.0354208611
-48740779.7331133485
84283546.9044815749
11854518645.2122554779
1347404255.8719382286
846220300.0783240795
23728340.1923807338
21702661.8845059611
-90006026.2694143951
6758186774.1203823090
3523659991.1462512016
103675604.0473226011
-379427.0481647335
48975483.0974928960
-4892550.1640843274
464654916.4336014986
139097.9137282310
404631602.5692502856
0.4728270300
0.8410767000
0.9571566200
636569160.1541501284
0.8200703200
1045471464.9137629271
1621382.1963885028
-21317604.1739272401
9867470.9326321185
6249272670.9723529816
-475121.4873942842
934919002.7072974443
0.3880218200
0.2657934600
0.8946935900
1571961951.8147940636
0.7265379200
146641440.4193719625
2677205.9872877686
-67422867.2026208192
-4170578.4432389620
828722051.4608436823
268699231.9626368284
204279439.8500138521
47138803.1767204702
-6472676.0224076398
-30937159.4642222635
735660267.8583980799
-96031.7279288785
1665347875.0551817417
-3145347.9757724497
4345572.7002584320
-1297812.0261783637
236189221.8856523037
111134451.0668835044
1120960.1241031238
1253589.7888000200
29.2572561146
222438.0681773889
5384.6446167112
4372.0193061988
1875478.2022654733
-244072.2716528307
-469946.5487756825
3374.2131410194
15550012.3265847340
191508532.1898230612
2868679.7254949668
62598.4800023222
1016887.8091838866
37084.2831860312
42013547.3244319856
311605469.5212910771
-1584601.3700328972
5271321.2310033413
-3393654.5983165591
169116859.2801842988
101225845.9332765192
527467.9840237522
-1381405.7607960065
4999168.2283569127
3802152.4040439278
1122238100.5666656494
175449946.3936436176
867841.6056457515
-1187305.7950693180
1402535.4795372463
-2817580.3653394734
650683288.7970423698
218585072.6328793168
471203.6831786554
-1626700.6659448324
-6688.6728565686
1306302.1466718018
742184295.7251570225
231076334.3576378524
-30689.1306902735
-54293209.8442422673
-117309804.9397926480
-78173622.3098945469
24810333020.0232582092
9336559.5157998893
16791401502.0339050293
28351777.4192504361
-62498150.4541393369
3044517.3160217036
14709634241.5628128052
69766122.5033811778
4336050753.5243139267
-393798.7587330576
-909239.8686125597
-9048839.6600453351
387809058.8270873427
70233591.2817486227
56643.7835095287
231373.5977382510
-1288941.8107901341
4141207.7427670453
542249881.8787727356
64735004.6431689709
167273.7439720565
-98643065.8844919354
12099641.0454644505
-6710211.6044634357
2732743738.1404633522
-1116424152.7792830467
1171726975.4996232986
-212886955.5002682209
-12209632.6638869029
-3285105.8965753205
256441515.5668436289
-2679393196.7210130692
213142911.1990016103
-21194270.7166471966
58098150.3888560906
36103442.2558624372
5240836572.2628717422
1907754.2490978744
886838839.7160106897
-221385173.0129225552
82499434.1408992708
-19912485.6272723041
4722314881.8176136017
-2847578770.1730332375
605787883.4362111092
8981760.5956406668
-17133227.1380342841
-167145.7495046295
4076948948.7171130180
97279815.2761839926
595424979.3271795511
-26360383.1780557632
46481536.9738945514
-20862873.1975571886
1295936764.3095626831
2268947.0807867059
1228226738.0750842094
3232724.2799494280
-37451333.0395722985
-1805752.4334345621
1073282025.9117654562
782692.3255264886
492998288.7295922041
24884755.6497708075
-9906374.6601575036
-23539965.8757606559
668142296.2662500143
-468416.9765109196
1426264008.2139725685
8561454.0420723334
3718113.8024248979
5421208.7222470641
265846880.8178113103
20263.6839571163
138774215.3214240968
3083305.6415893561
-660938.3964828900
12407514.2444483805
148489576.2038252354
162204710.4972277880
-7320082.7810703423
-2465313.9603015282
-10263330.4976707790
302247374.1939448714
278387484.3649894595
-6150154.4543931028
-2544682.3983216123
-10024305.1445077788
318647226.9459655285
198357988.8623565733
-3217036.3358667344
-849041.4209839790
-8418348.2913197987
79939537.2832923084
82212602.8252052665
-326107.9204027643
-1633818.8119852575
8597244.8646432832
61411058.4469290450
194394070.9446474016
-2938657.5832641455
-3118777.9957608329
-1703145.1878241987
816195589.4171082973
158179.4280586551
671708212.4670879841
-10928749.1155445073
2485304.2101889513
10717862.3879030831
265806020.4193312526
80987.5700280429
194424037.7727873921
3225577.4911454991
-226932.8886717814
-20599121.5659901835
105534259.0509362221
300985196.2778185606
18349268.3668124005
-218668.2593964947
-6874552.3186742328
116847002.8110361695
333117058.1510137320
33312444.7883380428
-8009058.8029750315
13831956.7626393083
153641712.8911062777
639661751.2317291498
1738100903.7871756554
-6380958.8788899938
-14618034.9969930425
-950889.3399178813
231092483.1439294517
-28309332.0394154936
4484928726.0628814697
33088151.5686221868
3391547.6886130446
-15015471.5944542512
560330903.7726297379
617643.3954167989
1101053720.4663553238
53739041.7457584366
6192007.1365000196
16600073.7506375872
3399792116.7870278358
646089947.1767977476
665103527.4405847788
0.6664829600
0.1872342700
0.4772467400
131091916.1082002521
0.6184907500
225326513.2892441750
0.5874035200
0.6576587200
0.1980889600
134712057.9565910101
0.9793109000
554044662.4448473454
50191772.8364389688
18166666.0973954387
-42984892.6145523116
2546335714.1240005493
612537125.7412813902
1106973435.1801996231
-1078953.6323004540
-431015.7219465566
-1662.0384039234
35503.7289301041
689256.0736961641
207224546.8251187503
0.2658858300
0.8032272300
0.8058661800
3009410809.7490329742
0.2643388500
205610175.6108224094
-77474.7454552126
312832.6125753876
-2378874.5544404634
3231212036.5406079292
859625830.8795802593
4513921998.1405162811
15546870.1192484219
9533096.5778715629
30287197.5286308266
3262491043.1693387032
470117167.2203651071
17291281.2104537338
19671185.3742108680
-25606381.0500355661
1390626327.0530855656
75099743.1198134869
2824459901.9044160843
-9017515.4290407263
-8478479.7392360754
20294211.8111557662
1247050973.9579358101
195937.3310031321
418893732.2151253223
0.9225996400
0.0805386700
0.4496969000
305942442.7642612457
0.8864048600
247748750.0456573963
37355810.3692268208
77057875.2552423924
-5849026.3957102541
371498324.8947970271
-57706.8392872747
52843653.3229829222
0.8727564400
0.3890055400
0.4965762700
220603893.3092951179
0.3556030800
42478512.0196208879
-1831293.5676846723
-89355969.4942769259
-267516.7509893074
1335641965.1380984783
282885.3776092670
836611368.8949209452
-1126939.1884122123
-45094921.7251280919
-547597.2602665862
1031765063.3233925104
351736.0779064794
658654245.9377461672
-5516586.5831610179
84986007.4473640621
-5671756.6073122639
7584589371.6773386002
-615471.7163166822
846674948.2659902573
-17986723.9821696132
-7701536.1904348694
28525462.3708324023
1827312098.2226843834
985557.2630809563
1853196873.4710049629
-43345808.6547157317
17182618.3536835052
16244589.5907497630
563293267.1740502119
-491090.5593777559
1434888553.4133825302
-11364922.9446695317
-60960110.8236393631
17416808.1322631985
2343152070.1753363609
1483606092.9180150032
110190439.9764941782
19077538.5650518388
-9773233.6032352932
22748408.5296284743
2156927172.3793344498
749562511.5408723354
-17508750.1376644447
-17444997.4258359410
-24041559.1117012911
1060060640.0600552559
66539122.1270488724
1144857244.2550332546
4864617.7953547332
-22589073.3680010699
-14873265.7316732518
8599069888.6403961182
313352772.2469149232
258511826.5610697269
-248883.5219309191
2608280.2686683261
-2748344.1307618115
818662184.3963954449
277678384.7117074728
228511.7571959072
1553332.3407068315
7.7012487491
-1780530.4667816760
4740.2981764926
2516.0186282253
-348996.9566316451
-2.3438424873
977947.2091315003
6119.0237776782
2087.4435747387
-1309716.8830960332
2661869.2550929599
3012175.5551275434
710931526.9886159897
327239341.4555121064
-330641.4162535601
-1091704.1917390139
-5051381.5537019502
-2154181.4838638236
1741874424.7873058319
-1230837.7971509784
508995491.8154372573
163583.9309928868
4286305.5495422864
-4280951.6655007359
720962806.4336998463
28998787.1082649752
-225842.6271041378
623359.9255258607
68748.2588933720
290.1460704709
-13317.7311693398
11361063.4059122484
7856713.7022545207
-223111.0708715425
2518011.5678454163
-2554347.0215466879
167512725.9312260449
37524057.0135420933
35428.8842496938
-2039273.3961483364
695778.7381824495
-7160370.2460902184
143333210.4331940711
170885116.0298334062
494363.3713817797
-984702.0471073345
-4.8204472575
-1351960.1885254243
4372.7566904234
4403.2262268098
-741010.9992640897
-5.7617718119
362552.3631541287
6587.1124872518
1458.3083209984
-3778358.2866924624
8917758.7399273813
-2445600.0069641643
327767465.3900454640
296762194.0031250119
1926631.2701208233
-718555.3556766391
3664429.3547219434
-3780901.9281478883
963950757.5487176180
182465384.1168271899
726906.9104844574
673312.3589274465
7.8590410163
-804193.6961458707
2482.5709665690
2551.4818856797
-588951.5758675555
21.6488465294
819944.4789463344
3427.6892959854
3312.6953807050
-82860456.8302170634
37404295.4737036228
-1278805.7249335016
826605603.5617887974
-2332794.1478525233
1632165687.8584144115
-7705855.6367840767
39658991.1133135706
37036321.6188525185
6690109143.8632154465
-1353534.2354519097
456856619.3797857761
-1588570.7485815848
5700868.5196834719
-51947.0445731708
603871248.3603971004
235612161.5249374211
1070723.3062706022
48639659.5860664845
20653585.4982498176
-31209696.0715925321
1906034422.2667167187
557594163.0226584673
1043092145.6563501358
-48717242.4113782421
38455474.1374308839
44190890.9444846064
6340821355.5202369690
-2575718.8960756017
895892303.8362513781
-16958547.4774851054
3459747.5340501289
73436525.4103500545
3144612896.1160001755
1312121.3526262203
342214696.5330973864
2615211.5204215585
3523313.0837574392
-22133315.5090663657
2142104521.1399600506
39453114.9381992966
241432296.7751860321
-371564.4401695970
-333099.6722636676
150461.0588316787
80560.6915349386
45565693.0091683492
2493420.6825781991
-16219804.2981367614
-21404592.6678513959
-18909752.0594838448
8585138443.6164064407
-197843514.4421358109
782479215.4858140945
-140048.0659502760
5128955.6722231843
8460413.2254055124
653263831.6954902411
63511546.6164202690
405481.6579858608
5361068.1371149290
3824.8040083269
-1768327.6774098703
-13789.1813115370
11704738.8204863481
192295422.0686173439
568213.5879841329
19.1272955085
-1342808.3015519502
6471.9108061859
4822.5792355049
694782.0879123735
-17.0063263889
-204808.8557331153
6579.2207533117
2280.3197990848
658036.0350340969
-1.2582260711
-186793.7297225780
3742.7764557275
3952.5369710454
1441724.6781537444
-0.9890500300
-1916126.8071571596
3232.6394387810
5449.7008500974
-62138261.7376458943
633297.7967136945
-667185.4094324086
45360090.8879015967
1018818.4602577460
976672741.5776013136
-62021071.8105677068
-47421640.2440300286
49429927.4870750532
2584632312.0479254723
-1702368.3759765651
1581671109.9979643822
-1663117.4754029522
-22224.4951561969
-279727.7785625409
-174386.1793804390
15605802.3178712223
5945546.6996419281
-1331297.3302700252
2656929.8554946585
3842263.7869776990
94359042.5953936875
140689296.4609449506
871205.1920416104
-1369947.6381075415
-22166981.8895404264
3243063.2056556032
6862310964.6157684326
-27505833.5282771476
419630191.9565879703
1871102.4433515561
2392193.8853698438
-169517.6192933604
9085.0635836080
20811618.2362665050
467794435.7090196609
513320.8555932300
-3081607.0834548008
1799063.9406695000
-28571.6316277588
17424589.9376231730
272520685.8728689551
-3781706.6842365069
-2154165.3265836271
994395.0301736190
22243.8122377286
16723887.8122499846
528708842.3170003891
-3484294.9570973208
8891089.3920049891
3131638.2813291722
1282850182.2879352570
93316553.3645469099
1032835.7958383779
-1699718.5567117736
10769087.1882066727
-2825032.8097142964
1250157533.4648380280
167519095.2366032302
1597119.3612197703
2862223.4996247767
3423641.8706651125
-347965.7748497964
-11491.8839447121
14479430.0276498105
383474854.6132351756
4609726.5554161789
-2071684.5451178071
-690248.3597200124
1066175117.5558847189
175083922.7014483213
-642635.7016429253
-542101.7336840236
-19.0583743237
-933697.1215577620
2041.1636550446
1574.4825799922
2051241.6906686733
20.5886922934
-986280.3465847392
2260.2914797856
4031.1070984321
1956552.6750069223
5.3661039479
1474132.2594744111
4425.4648114077
4064.8825292036
-577733.1881260572
23.4400043176
-2628184.4475711607
3086.4048167755
3428.3571631492
-576840.8022766355
18.3381760167
1438188.0014349311
5954.0089746201
2946.1304366949
4639611.0518694101
2434642.6546940152
-23080823.9832595959
1844769675.8602845669
-318105.7471939765
275911372.6050928235
2297730.0232702857
-2810331.6365868561
-11984285.0883492809
1877114709.0376031399
-82326.6454561692
272074368.8073458672
-12190.0881586004
-52289.8664467387
-1185.4679156320
-45487.4228243009
14974292.5024725590
6010113.5924290884
-1122466.8573648972
5542520.4199705822
-4079342.6185295484
838821378.9726397991
153736714.1625582576
851566.4127996104
5119731.3809321765
6694274.2381188814
-13378089.1633097474
1270376581.1121528149
-99967.2691889665
269298960.0309062600
746782.1927945215
-217263.4671292220
-2454.2765331743
-97947.6324051922
31638118.0458851047
5825891.8489892725
1173443.8279883279
-581875.7652594169
330050.5223570312
213676.8014213048
57707288.7052074373
1458631.6091173992
-2388569.3229453852
293467.9038763830
-7284023.0649327161
701551848.7971373796
274610932.3781012893
2063735.9324389831
-2336045.7301991838
6817184.9363116752
3039720.7075450574
899357555.4406173229
184401466.9052309692
872788.5761126393
-1224842.6368664645
9375395.6304264292
-1486851.9049449260
1184214355.8767006397
153987326.7130480707
1107780.9006655489
738766.5098701088
-19.2472695018
-1914098.4242328142
4329.9334087818
2682.5824442793
165576.0513054863
-14.3226858512
1398107.3293574788
6394.6604556912
4179.2674997241
-479222.0880295607
7.5062766379
634744.5913957916
3934.5745790394
2210.1351690564
-43175.6421673823
-2056075.8723799048
6655623.6344065713
377182975.3886213899
37312872.0909358859
77951.4104366623
-142048.4301085619
1632969.8249783448
-1436757.1140887050
734102122.6297274828
211894728.2000503242
329144.4317702174
2997952.1782305478
285960.2678163217
760113.1565459494
55945.0735448868
33245797.8382701688
161084446.1826389134
1175827.3422268985
-18.5112227123
-740359.1259308647
5402.9745999234
4441.8293745089
-742449.9437739943
-135466.9602263258
-2505579.3611470009
1162758432.0681982040
77771127.0787225813
-358832.0986610492
1178107.6497067832
-868124.1825041429
2693538.7368911658
1134046304.0355582237
91824034.2907322198
347341.5770632690
6712631.8392277490
4884256.5039351033
-42868430.4753776789
3161281718.6260347366
1930193.9168562642
993461843.7015576363
308316.0090130250
3683119.5590482615
1447341.9510696286
1292545917.6143224239
65793930.1433647349
-310190.4087218084
-860199.8387662747
-2565032.5628893548
-4039133.6453054179
1516201259.4169831276
266174039.3432103395
195591.5010012338
4285107.9666981045
2690731.1209654850
-1959451.9447304723
16397118.2626139447
-49027.0189174497
386492430.0594375134
823692.4771240465
-2758237.3067747671
-1419008.6396405790
35647242.3533446789
45958.5958836755
652483325.5765619278
3892930.7658836870
-1209207.8910925940
-853904.7193808533
35815763.6747688279
-6633.5436278058
322047624.9031921625
-358171.4816520284
3072166.3690699171
863942.5469815605
33293613.7987506352
48285.2293182240
1000842450.1358498335
1878742.3112851174
-12.5181912637
516343.0530731872
3595.0777387282
1153.0542366005
-639765.6792747980
292848.7992372047
1729257.5058095935
164797601.7813732028
8520252.6870852280
4054.6116516102
920398.4263849434
13.6426980884
1179038.3849421891
1795.4859799503
1035.7502282717
-3570428.9650327452
1273101.7160788365
-269244.4138192369
41936367.1532848924
-29707.0217099671
945328554.5522813797
84253.0824127866
21.3900124689
-1962772.2555484173
3735.2069759865
1511.3992382239
-588285.3475664563
-6.8768856343
-788475.4922172595
4136.8021477264
1419.8580337520
-487089.4175259716
7.2947120438
-190.5099614813
1894.2722317691
1295.5456652104
56539.0432250668
32.1447577343
-2111606.0257883552
7266.6156665329
1488.3949852197
-1226060.4470283731
27.3467081175
2682943.6360698771
3871.4161573313
4686.6224355708
-615714.2605420399
-2.1004224471
-1592601.8626058158
6873.0875904585
3205.0655419142
-949823.3854707046
-4.1855378042
545965.9298600345
4985.1460911199
3661.7186882973
1385229.5633671642
-2.9237979861
-1589886.3559489511
6701.0135113886
2373.8811164740
209013.0640634514
2.2500309969
1447226.3909200516
4253.4478433115
1606.1270260679
-6186967.0089637740
2570748.0391332316
-5350515.4043923356
588774055.8954877853
183293490.3047024906
-648392.4500677221
-775581.3764761353
-3230989.3617074238
-360084.6511971492
758085038.9181156158
201935126.0861898661
198094.5091438186
12097333.3778606225
9011874.0853420459
-39031454.5246064812
6589720960.7908658981
1427646.8992235814
1180950871.1300766468
412720.0735707344
-52150.4225612813
-2560.0535395280
-77000.3335175299
13423982.9630364664
13919866.5613745954
89745.6992933470
-1824657.5752941975
-3354253.1234606719
591761815.9318006039
263385693.9228883982
-278649.3038797838
916696.8472034737
1311734.0121077539
1900304.2752005816
758941520.0029060841
295020312.9994152784
-391606.3135156971
332521.9759814120
3759477.4130799351
-5208088.1724685635
1136341651.1472284794
189555164.6033695936
359817.3233919510
-3579210.6159590310
226116.5964903810
714640.8762117827
888858315.4179875851
76459642.1800499409
270537.9672677864
-579792.6119645167
2760715.4234377039
-665856.2147976578
833805272.9800363779
76285250.4360807538
-589638.3760377885
-1068805.2471297418
-1927972.9256686324
-5351293.0215355651
389546543.4305252433
266702525.4814972579
1005823.8048014371
-2631983.6838458995
-253749.2314335257
-62394.4861826006
-26349.4096154736
81711608.1322058439
285132054.9004542232
815242.8795560561
769112.3975766731
2287183.6921436898
979530931.4902800322
34612244.2322060466
147994.1480761981
-60609.0363187324
-2486731.4462623750
1915836.4093066661
708063099.7882072926
210687565.9545943737
249810.5140972595
-153403.5802464476
9.1020325770
-424168.3724893157
2435.5059003161
3466.2884544027
0.6623797800
0.4119809000
0.5754325700
156151271.5373759568
180574608.9557909369
0.6585779500
0.9224488900
0.6450071600
208451951.8149859309
49941667.7350787893
193712.7193038230
6326246.5957588898
2903368.9539154400
992442973.0975459814
51449635.6605759785
-126686.3147289588
0.7704719300
0.0093758300
0.3321081300
181726903.1884093285
23604454.4519276358
373688.2687327426
-3734207.2501934469
-321900.9274829067
241909888.4198642671
51887550.3568224385
219342.7574956397
-25983554.8037833795
-62926025.3555934653
-94767466.2447340339
23352459403.6535034180
76948897.8848336041
15294774493.3885269165
5814992.1075953627
13785248.1946086325
-45669527.4608835801
27802675428.8079261780
1005532.6348935006
16623415537.2265090942
0.7306526700
0.2209830400
0.2058087200
12101295049.9328556061
1129727.0610674215
4290582848.1403117180
-9594181.5206539072
-10304893.7822657023
115368732.9483518898
15069388335.6184844971
17515486424.6521415710
-2689467.7431719811
13510495.5120807346
-130113.4125030883
2582520810.2178726196
751364.9389971226
497019282.0568358302
-903296.9837243631
48083617.4582713246
9304983.9302334003
3023983028.6461887360
598663.7780460459
105120724.7284216434
28213971.9182770066
-3934656.7108465927
-51224497.8579260036
1307168001.5250332355
-1396028.1669828997
191323200.3648088872
2090532.2853999776
-58810703.2909761071
637748.3670029448
1248945303.9638595581
1066997.2836739868
766389497.5653909445
22018159.0992330760
35174786.9741319194
4189460.3462384092
2138052959.7215099335
104450.6991091287
1222626575.5765442848
-19876742.6835416965
3071128.5844714483
-11093794.7650609054
1002250237.7091618776
756286763.8515746593
17946123.4238372408
32889360.0988253728
-33421877.5602966435
1532620312.2916121483
588426968.1203403473
-11759584.1771720927
74230133.6149168611
4987789.1421367694
2026701860.8552935123
716319495.4167616367
12451308622.7157211304
-44773769.8063205853
-52617751.2976826578
-15096509.8804490007
963532276.6213569641
186688500.2484683990
5593210581.3797616959
-3267590.9669701844
-2700722.7125512860
8742434.6208729707
628277040.8910977840
156246830.2740009427
4335209948.6597890854
-60444845.7720598653
36982505.3277675733
42321330.3809936568
2165922678.9089345932
274192.3642088601
588036869.9214712381
20631596.2442115769
17392218.9925701059
-13546747.5083979592
913462654.9577296972
-134752.7189512880
1622826417.3965256214
-4750190.0913079372
7427042.3321913518
18262680.1904866770
3113624364.6071920395
-163163.9198769315
332740965.1590371132
-563562.5888869257
-8678298.1416443307
-15425454.1908774897
2907716021.1776547432
165007.3839186453
142339268.6950145066
0.0214942300
0.1931634600
0.7947960000
254909830.0163992345
0.4275584900
135007144.0124180019
0.6994462900
0.9813250900
0.4605870300
233666377.7164239883
0.6321266200
568784882.1877945662
-5520504.7807203494
-46437502.3333195224
-4562745.1618029661
822747926.1736228466
589462929.3575525284
308851490.0377801657
-16219436.3843694739
1600635.1074822401
16239465.0986394361
352131630.5002354383
182003972.8775221407
6796628895.3293237686
-51154670.9405390173
22029780.1702541597
8727067.8601338789
1255149114.0464341640
-235651.6230547778
1990090416.6753029823
0.9569128000
0.2158757000
0.0913467100
382604160.8803851604
99594361.2738915235
0.5189052000
0.0630536000
0.9238020400
184593511.6848873794
76453851.1548512727
0.2157309300
0.1323569100
0.9608162100
131566369.2640860677
85983875.4008934349
322888.8189940581
-2176507.9633563957
-603868.3969427590
345612078.1071156263
214243426.9418398738
0.6074776500
0.6574137700
0.0255214100
116138633.9276453406
74305303.4641456604
415429.2182114781
4207927.3710521832
-18605449.5210520960
989104605.0988029242
-633188.0824581931
354183773.7501834631
-9573293.2108194400
17506957.3408150263
-1632504.8031225849
1483113533.7494108677
369152328.6316102743
4327996.2257495774
1868184.7419763324
-689578.5593298509
905319.5042023837
763498154.8579685688
317974123.1785736680
-524014.2823457012
-716021.2728214524
11200098.6107027531
2934825.3622696688
1282069596.5230727196
280714498.0329682827
325162.6196431372
11820768.7297741380
-49984103.0331022143
-9913363.5820130352
16058008217.9220352173
15035640716.2212505341
12835893.9460583385
-159153905.0176390707
8395835.0897320956
9933213771.4629440308
5324894116.2049341202
21302780.3972737603
-98039340.2981041670
22188785.1922710091
13590896015.2436466217
4723349607.1874084473
741401.7166547463
-4004920.9976758882
9693588.3075481430
429611968.0968445539
51888222.3740447536
-145381.8299740983
534449.3470816280
-4364986.7503038459
-3343920.1751579484
705704057.5596810579
31074495.3810635209
-97107.2380923346
633469.4069312887
-17321650.9204601385
6226458.6260524150
255863445.5200595856
984665518.7931830883
368190370.7847496867
-1187675.7475340809
58621838.1371379793
2451722.8335006107
1369582371.3736512661
1218148.2143039340
311104353.1193073392
6666545.8989269249
10239608.3485684227
-4599623.4871178428
698699619.3180404902
323244342.8290358186
978917638.7770403624
3232370.1643603235
12832131.0811552536
10044672.8740606941
618237555.1940108538
247042872.5654489994
6213370229.5554361343
-13443030.8958570976
19234198.7482416965
19354654.8163147047
3728698531.0075592995
1159152.8018306342
1860830399.1830706596
15340309.3162030131
6492228.5404664809
12159904.2370744254
574782823.5233036280
51809402.2405151799
4486534694.2406082153
206174746.5679995716
13024150.4725922123
-51322689.4584513307
5650138990.4551992416
2570373295.6722226143
367200704.3215023279
15709909.8703598492
-21619635.9692126885
35197407.0981754437
3079474301.1170144081
1664746.4255502552
1569132226.4830629826
-8991708.4409273081
21419474.3902583383
19165874.2112195790
3556088918.5530409813
-156517.6704221585
1415398097.9621751308
-25339552.0111091100
9500791.8261249214
18291819.1338103525
790399070.2407764196
702807.4097826707
1009485339.2882931232
130883.5719676505
-28037.5735459216
28.1548566144
-2017.6246282060
1814219.1006496313
43551039.8316858336
0.9209711300
0.5031615300
0.2810068700
155490238.1016691327
0.1980261100
749957765.7419353724
-19329572.4482462257
-11471550.5107045211
-10450257.9129614774
2762179338.9131917953
-286460772.1050748229
593967724.7603042126
0.0344295300
0.7494989100
0.7997486600
3500574710.8906188011
0.1060339300
159228415.6521959305
0.7035503400
0.0449958700
0.7711425300
1060014258.5937913656
0.5561413600
342633536.3876486421
-11578113.7687530592
-7377194.5716531593
-17916454.6858724691
1770385138.6575996876
-235160492.0168561637
1113312828.5473742485
0.8110096500
0.2394114300
0.0696576400
786441064.2046709061
0.5697192800
145510399.2944249213
-32101141.6132182926
48123875.0720595121
17126582.6726832651
495807600.9677332044
-960591.3410611455
1921865595.6839313507
0.3462567300
0.2322907100
0.5448168000
143121074.8461430669
0.2272514400
733462135.1072888374
-10068959.3491798323
31005590.4638777114
29679928.8939017169
1161208334.5173249245
266363.8055448913
490261698.5607669353
1993994.4582586996
-14798492.2566613574
-5888576.3183424883
448055663.8596154451
1272426.7440705961
827087287.9224668741
-4047999.4860065584
4391581.9812102364
23207290.5846466050
6573503745.3349475861
1736311.9881480385
663131578.6886340380
1965741.9091109773
4352459.6665103165
-6764331.9988371525
345157340.2140719295
-2622.1581013816
1049320182.1653016806
-29669670.0317429677
79133632.2303230762
-5477804.1364685157
10240979199.3585796356
760712542.2326376438
1332498265.5927939415
-1662147.4979210682
-1099381.9764944597
-41842.3554425250
238219906.2433620691
66830136.7795029059
794683.9583259325
4033443.0254842555
1498300.0798337255
662447001.1617611647
259688.8197204956
341289788.1814430356
0.9162884700
0.2359164400
0.9246552600
1463675936.8021490574
0.0092923500
490513609.9911479950
-11825546.1039902139
61428096.1100723967
-4137678.4227101682
534145394.2500544786
130335.5005635687
85630499.4287180007
10900.3250431485
-207566.0225785814
4981042.9703864334
577485464.3050975800
178617890.2424250245
-89201.0011200000
0.7115964400
0.6377525700
0.1966747100
511869738.9193225503
0.4759448400
170622215.1759488285
437844521.1598153114
2389432.0680560702
-63567732.0341883376
1611821534.3930826187
949479.1831705703
10918358690.2827758789
423844.3691534525
-1528825.9030228343
1004637.8532532806
46143874.7272864506
-70661.4706177602
993100358.5702821016
272294262.0546667576
-4826225.7466562232
-64480378.3748026714
1398688829.6092998981
-1940107.6977601470
9050537091.7184181213
9789986.0859958604
-3251360.3398555052
14959385.6944145896
7565440689.2642068863
352963224.1995010972
547194139.4668829441
-14983575.2318407856
-1964702.9320924261
-4008080.4721066202
1310694543.0411431789
832093964.2788940668
19515161.0167606100
3701944.3180440241
-51642476.3433122113
1730728297.5963058472
244297457.5592502654
1392904363.4970836639
7651880.4202739215
112406808.1620205790
-34973370.7963591293
393570976.7292978764
1314277797.7467634678
6240945757.7285060883
-13358947.7277548779
-42222488.1353113949
23581945.4826865532
2316832052.7110085487
-1369577.0625571129
1149435973.8023626804
-28164223.6833540909
-60307533.2350759581
-18064474.4523491114
1595656070.1409807205
-3321.7623628689
1263352492.0026445389
37431913.1459935829
-54668392.1961438954
24711839.0862616524
353751842.8081666231
2643126442.4539675713
13667121493.1831092834
345152.4317097240
-1906411.7065165283
321256.9415564542
1081625231.4130468369
304505926.5036126971
16707.9913309778
56845.8152324258
-1667285.3209316239
4919148.6549794376
554188494.7219433784
275169954.4651761651
-409408.8493486738
1111252.6192422747
5249910.0246402677
-3405597.3496321114
890896236.8802517653
253594431.7741347551
-31038.0946642761
10126128.8576931506
-24382470.4337014034
13365771.8016536981
307159270.5846894383
414869697.4414853454
-4108465.4179867604
-2581829.6804021350
-17.7068439507
-1074102.3807321023
3977.9395491839
2539.4441864801
-124005.0177322887
1344752.9153680757
4744582.5024841810
495499972.3501572609
122149529.3552121371
422108.5843181885
360551.0299016039
-2819331.5273580095
-7215373.4014590932
722193177.2879604101
127414820.9883144200
-702115.0312721179
-2829485.9224264477
2138667.3177027260
-7393595.3458573027
463698940.4625252485
289098843.6138513088
327918.5361552865
-1897850.2209644362
931809.4414616411
5965681.6616628580
188556237.3175748587
208326251.5264404714
498521.0254219321
59302.8410191954
-877584.7659949030
4559906.3996018060
933402320.1358639002
65654298.8391230628
806340.7608115851
-857911.6687303984
-358994.4279342891
2915666.1961946934
4229390343.3428187370
803382.2297061386
845679585.0623180866
-245693.4448130543
2131572.4941722513
3396651.8215578645
1169330567.4096431732
197360166.5905907452
74354.6485958034
-356009.2139586004
3970123.4875671384
3109418.7047664318
721015425.5616875887
115583221.1599559784
-127932.7825445073
1218974.2553069326
-16.2837934811
-488728.1495243229
3984.5712120864
3369.8485931436
685456.1209733423
-5.3334058021
-413497.8893810660
3846.7479231849
5151.0925990608
1033685.7052377334
18.7520858248
964293.7841038512
5445.8368098727
5582.7044271894
-836507.7585007998
-17.6994247906
-649113.3445241307
4735.5579828662
5391.0257353322
-231183.1028986134
-3764393.8631739421
4780253.0967079960
1763985468.4077699184
247595441.1335436702
1184347.2259363052
1788933.6209269455
6246839.3936884170
-6751919.5207825620
1586300259.6714293957
372849614.6364072561
-1163243.4350351428
-1834057.4345856209
357450.5626670543
2968757.9621445867
4158142399.3140401840
1108954.9075434974
635367610.3753926754
1203861.2465635103
-264110.8850939042
241369.2561024961
181530.7058912938
42361001.8414116874
10373597.4946903065
1251291.7880066212
2778629.3541032616
6073198.1783950431
496135261.6536749005
350099267.4854322076
-1359669.6742333253
2484855.3348541339
3705380.2020450258
5560009.1424197201
998929536.0631082058
137164117.2326284349
530505.7957058998
-302361.3431232995
-421690.9546915527
-7698608.4074519062
835975136.1542506218
45523636.4917159304
-122374.8055994613
6152109.4375957968
-2288992.5890859193
-12129983.3475064598
767050958.9165211916
952566.5194962940
532711313.1130278111
8242841.2270921376
12692651.2632764671
-47892071.8038574234
4662686517.4591932297
375781.4230515639
1038947789.2323274612
-2242623.7682790365
-44444.5289000878
-508659.0010574791
-400776.9291863037
35685572.9891515747
4112461.9146995200
36232.9327884365
1674837.2854645874
-2974838.4237852255
291008394.9951657653
220793277.2427404225
-67850.2641832317
-2397079.3236267557
2872593.0205193190
4236045.9859270081
915375771.4662467241
263944358.3869973123
1097439.5175973300
679436.4220873541
21.5049856845
-1098933.8488603493
6220.7681399473
2170.6847599193
-1102666.1833357015
13.3241974073
-1708075.3779100107
5789.9698237178
3907.9272715607
1000423.6792794982
-29.1497005810
392280.9831265380
4832.2713417945
3823.0884567591
899565.3798751349
13.0033751879
884987.1702553190
5866.0880465008
2525.7868040829
200622.7898379865
3.8771259499
-612769.6990627416
4192.0625310389
1611.7951691999
-647503.2274499984
-14.6401947805
-742258.2232470382
5239.2568472752
1893.7069214643
4983621.0228381390
-3806749.3526655626
-193263.7244932799
-51116.5368661262
4669908.1603147220
303797902.8371860385
-3288564.7187526301
1793174.4135347742
181971.6962482168
34398.3721349756
13139559.6987414844
536288514.0934788585
-169001.9500912747
-5737045.9126434568
2737963.4548375681
1285935080.6929631233
315530038.7774198055
-938704.9570586806
-1351752.6827492828
529377.8218141666
-4409915.5189448167
550951655.8489316702
362260087.8530528545
511510.3812936559
-832888.3874915907
451553.9482814795
3686684.8763196818
1207148794.6503300667
95118236.4843162000
342572.2585514172
1035749.8240995313
38.0666680023
1484781.7195448303
3354.4692270747
2547.0930110538
1006113.0451098838
11.7057389082
-1060180.6161134774
6046.6950699091
4676.0568896559
-1299338.5531952563
-12.3177602632
1384881.4805910008
4527.7806130232
4418.1205450603
-1010901.3701285860
-4826063.3888064725
2283028.9891631985
1006024937.4476209879
250180334.5377895534
-831066.0864994453
-998595.6826035441
-2287452.4656044613
-6582105.9786993647
1668380514.8633377552
322048319.3349567652
429027.8241146448
1951091.9124352327
16053410.5846395176
-39852095.1859522611
2218665604.4625277519
1346406.6401177661
539455619.4874758720
1603581.6941018465
253500.1561509393
-288401.2895557568
-268294.5289350482
31637580.9131882191
13604773.8054136690
2199035.0603274019
-356682.7454704258
313951.4820282988
218410.5672089174
80598519.8718526959
8755536.2957296129
560062.3597010268
-2287843.6937341746
4940483.7375394227
1713538514.7323658466
262355699.5568845868
-618255.2968359123
-956132.8426729240
3404698.6431167154
5317304.4445654666
1237154210.4036905766
133055804.0489595979
679015.7951225222
2128697.4057253390
975917.1106674320
-391494.3528850435
10179.7445030262
6381036.7023089202
63346730.0623964369
-528456.3522280386
-943320.8567472716
1960004.4524358604
-3589.4286069829
15703860.0157788228
95902994.6162362844
-157540.5099937387
-1436120.6431999211
-1360913.3352882036
1342155936.5093078613
297293845.8880165219
287584.1306768485
-533829.4895728470
-363631.8068936127
866508.5817384291
593924072.7922282219
127069443.1777642220
-283785.4367956598
-337312.1618686077
-3.1911990558
-69962.0730414830
3511.4540420485
2151.9790577131
353481.2982233702
9.7291421564
-1268672.1797561790
4458.7569793742
1684.7519914333
-935389.1422607736
17.2915779666
-2242196.6468026168
8199.2601678382
4955.5211055152
-2176705.1219098689
21.2135636200
1039237.2264721141
3804.0578406178
5226.3555246974
-1238517.4803783121
5.3456017405
4194430.8517476264
5105.6463180430
4813.4109662976
-59852.5569082384
14.0140458943
-2805960.2152159219
6408.0978371300
4230.5086906184
-248442.4642584281
-18.8379885700
-499198.0290873381
6607.5948551701
3438.1988425943
-656731.0885466241
-23.9483263422
-734771.3889059825
5058.8375250133
2296.1371099033
-422988.7767806749
-2116275.8495286340
5798987.1231033532
913065560.2980207205
222443835.3430421948
-337211.2511092818
162175.4283680757
587385.9216895608
-6062936.8685544245
1244287416.6940288544
266358983.7709552646
73903.9884404426
-2375414.5587770897
11122894.8306251056
10946948.3211220019
1115358653.5120294094
-220339.6996328072
344788765.6125133038
-3923501.3707297663
-6230930.8185867211
4177180.6169828875
3385932174.1079468727
59124.3552964796
223311167.1386193931
571479.4685034017
-473068.9935491448
-2104.1170696206
-67276.1506941469
11810079.4746441822
25257674.0526874065
-126174.2267954690
-1882141.9095756295
-93108.2047582867
1551907094.0815715790
209819597.2507042885
-475973.7182321158
477569.4522597585
-845916.5333253456
-4576681.4019847605
660007881.1797817945
59674239.2109474093
98137.8470662943
919474.2771302199
2085838.2300499352
6542689.0239595911
1110774171.9731240273
149402729.5253577530
703242.5905858149
1656282.1938017197
450024.0601364491
-8601440.5838666521
1380845284.6692290306
297650279.9307966232
496843.6074227515
-1597929.2736465638
3991385.4385892302
-9944020.1079776827
732651326.3466647863
55888807.1603432521
27476.8086246785
216221.5541244014
1082913.8448897849
2510824.1476825676
1213265565.9792504311
125904263.0353938192
-342687.5822388734
-3666813.0386977089
390729.2188205603
-189723.8286735774
-66170.8847938869
10789680.8451745119
185469454.2136806846
1951105.9161571134
2405172.6352219386
5116730.1568995258
717843691.3639569283
242635148.1635499597
-537983.8179859181
615561.2276056154
-2008662.2078932482
562438.5911735912
820887759.8040317297
183238784.6487769186
115467.6397355701
-1029315.4902112434
35.9117710962
761051.4187878156
4404.4278920616
1386.2156254025
2665798.9940438368
-7.9831683349
-653189.0250608011
3250.4474638053
3948.7127778748
633837.6120888080
-2054368.8627882334
-52325.3128175257
24812426.1499019042
-6796.4230289834
488964114.9036908150
-182337.6406567164
-23.8437517077
-84096.9922765515
3480.8528462997
2585.8082143693
-962634.2720669530
2686941.6993505787
2974263.5334413243
666592100.8198955059
65818808.3865827173
28939.3700858752
2050559.4336351356
-3664517.2008356936
4483774.1823826879
862603309.2790076733
199942773.8450398147
-198647.7910079375
27829.7797792938
-2508738.0583952041
-5472741.9617954595
589042759.8927537203
58269582.3226592317
-155882.2032133250
-863131.7074471647
-3141364.7488701083
3328284.9691919843
1230346538.3561215401
139894023.5251517892
150418.0500612339
152266.9603204661
-2540568.2334494004
-81156.3992709061
572710385.5350129604
160446007.1692829132
-291820.4628622096
912370.5921072392
2704009.0445515336
6608042.1960020214
780121263.4867738485
307574658.4738234282
-639155.5738611280
1122918.6520176306
-10.6716922093
910309.5412195865
8167.9215612577
2076.1993862594
-194186.6419973257
14.5549613115
1244220.6607570564
5661.3080583600
3867.1905487498
-1818690.7250377829
-20.2980838532
671546.4790563972
6262.2674065790
1579.2166669376
-68199.0721480237
12.4275528325
469481.8297319406
7696.9593944906
3190.4890355277
-877008.9681964085
-35.0621306915
1011917.1658649748
5640.7899003498
3440.5071311378
1773199.1722846874
1530316.3359361067
1143725.3161962943
68045834.6734310836
45565.4525489071
1005863101.7338798046
6365546.9124298608
1834417.5505758876
-1232554.4228464363
25266384.6249315180
2997.5871182364
544114451.2137457132
2416229.2765852078
1311795.7371806568
-1785204.2000601036
39300971.8833211362
6714.8272688871
193034999.5472121537
-1786478.1070895006
298253.0741758372
-619107.5131881170
22526187.5949456096
26808.1816873165
987513179.6376801729
2042882.4291151357
-1634545.0517060237
-23673413.2263807766
1912697568.3121657372
6144.1771451847
126976402.9091540873
90685.8070484925
1292500.9673059850
-1930026.5242363655
1524732831.0917353630
110858023.7832566947
-733607.9095818526
121142.4398714524
-997485.8063243853
-6485290.4222007953
403060008.6267026067
335236759.2442771792
-217278.8498197471
-809150.2695620314
-7.1731587760
-2433600.3676356995
4742.4260913116
1185.1944046965
2880142.8402137393
267784.3781163617
736865.0540310767
-28292.5868065126
38094677.3434985355
203581712.1542083025
312606.2490035419
-1486915.6044739732
3362011.7134772972
381367646.7875967026
146979212.0510221720
-690917.2540561256
-426564.5598602545
15.4372255342
-1145396.4021742928
5757.2689725563
1823.3597295345
1127785.8489803073
-1284794.0772816243
-1314699.8549081057
447225624.0727013350
72796277.6131169200
-705283.4618220499
-1407010.5093824521
32.8830070323
792800.1843231842
4420.1053767905
1826.5674772590
1904085.7738614283
-2682927.1553362114
-5775420.0980601432
943082558.2287182808
180323236.4720657766
530555.0662363010
745100.4535692476
-1063554.4015729136
-5017608.3310496807
465367491.0927776694
284369883.9230666757
717794.4257618196
-511797.3413285644
586115.3998494273
4545398.0716603575
1186658161.6418750286
77110620.3590086550
6867.2472479203
-857729.9827390437
858818.5432605996
1703561.4210693773
628063942.2349057198
302069271.4680225849
543491.8982792672
-10519.5574395608
410736.3627995586
8533610.2355785463
615357262.1654545069
339036288.3527283072
-132654.5644381508
333484.8245528619
398015.3592844894
-911.8091319369
-16693.0339126362
5305930.2948495541
22818641.5449058227
124532.5681203278
-145821.3830432624
-8186950.7211745046
756363973.3787152767
180364820.7972728014
28080.0766745973
406953.0640299774
4160506.3743788488
-8577697.4322846774
425765339.4855855703
228577470.2218749821
-370235.7124738764
-755346.3998726236
40145.6984172123
1189699.5866160342
109298.1122938862
59902860.3065977469
262556428.7643334270
-77534.2284056386
-2768666.1873657522
5108716.9169943957
770790448.9088083506
180472568.7205483317
769539.8766270860
175635.1778436918
-1039561.2977454617
-24899.7891186196
222269758.1280726790
271507273.8778077364
421493.6486712937
1819303.4269283614
-7.1405493512
-3327452.8248387948
7309.4513546431
3791.9798654848
133847.1930280616
11.2232856789
541143.4900343656
3780.3241454994
5271.8138623138
331235486.6502022743
-5166718.6422219658
-46173125.7372739390
1012472690.5546288490
314390.7546203327
11182673497.0386123657
-1248713.1932985021
2938470.6785934470
982872.6983067312
49129846.4654564783
113179.1694083332
500566314.3585427999
-939109.6350009436
3242243.3462012466
8187293.1596083893
499258900.8232432604
284562303.4815752506
13955975.8284572661
1059633.8063438109
-829714.8719481429
570919125.8512209654
228054302.8276477158
1370870.4813355582
5187470.8396392474
4047417.2878485774
643343311.3076370955
64234828.4115988836
0.1985483200
0.6764934800
0.4983248200
204981310.0508444607
144402644.2606658041
424977.2975130986
-12697052.1579268966
1700919.3047900375
926662972.3585100174
30579144.9824141711
-124565.3383012811
9958259.3104531039
-2366464.6231668768
-6068767.2372785443
550331382.7299938202
230163195.3352440000
7688960.2085836958
-5895936.0185924387
16024133.8439466935
692441309.4710720778
340786907.9363372922
0.4161995700
0.3688084900
0.9267799800
380796494.8703478575
50799874.0204874054
502553291.3080021739
28879762.9778426550
-59835677.3855592534
-113051943.0435674042
15525740600.1640548706
929621.7744574448
8569019941.1293678284
-1375646.4913171292
-7550322.4862348977
31928397.8444409035
25847070918.1613349915
18931730963.8484191895
0.3070839200
0.7883917600
0.3244836100
12015548581.9857521057
7921251734.1508779526
-7431026.5670251707
-201740661.9893193841
-1142088.4973811461
12008855526.8646125793
4372861356.7327384949
1442345.2804110495
39906078.7867689952
-4276888.0994058587
3231119117.3223462105
924230.5462817013
296034091.5369244218
-2198327.4298365177
48823953.0080899969
6208503.6300816657
4119246379.6350135803
-906169.1619705616
311935176.6515625715
888709.5097564769
63163233.6319663525
-7357660.9370212322
2984181644.0948476791
1736156.1813192565
223580594.9057301581
2238852.0270345248
6792241.6787952259
-13853888.8107211739
1468687483.9675998688
1476836069.7195458412
-3741268.4703777391
28301474.3799997047
-35026023.4929941297
2196614919.2725996971
1402595164.9985082150
18440857.3042012230
-95488777.2711276114
59809473.8146350235
1746120512.1763432026
1158642253.2795083523
17461594705.9949455261
15467936.1648198459
-36928972.5132104680
-17842814.1790518090
870826177.4470512867
201565577.2608968019
1662582138.2072143555
11783892.1850808598
-73547252.7102215588
-1719096.0550214041
461752370.6072180271
47328.4576114376
28140500.2663333975
0.2101663300
0.9253632200
0.4680512000
444988472.2040608525
0.7276717000
64641964.0253355652
-55754903.2803668678
71104180.5856501013
11787572.1448340341
-1403898591.6872990131
1475545723.0665202141
136575794.0740859210
0.1087945700
0.2814083900
0.5343613800
314811915.0630892515
0.6394766000
240959705.9365116060
49646178.4678702652
-3884243.5658389055
8782121.3650705293
62964828.7118790597
324865166.7944423556
3767558687.8733253479
1484150.8762048674
12143868.0202079713
15525735.2566517908
3019901933.0974154472
344937.6359964013
241289489.6859578490
4484244.4544229396
11685794.8418983314
-7628396.1013624445
387480584.5295251608
1085970.6996906910
464762341.0189918876
8604055.7034525573
6419469.6977081187
205953.0565060668
3048807081.2346467972
1318806.7735306558
1335126496.2171010971
0.3637683700
0.7315964400
0.1841196600
3776408736.6657366753
0.8194130000
778482150.0298120975
-6411452.5818894319
-48489404.8028324991
-11494195.1351944730
841084072.9104682207
537731529.1735372543
235589989.4405599236
17216789.3046025001
-42313279.0537796095
4173472.8992107781
617031312.8550039530
439066688.9273123741
478637845.6459490061
28912505.6761502363
-1401187.3596332388
-20907162.3598101065
6328205446.5371608734
-625668.5042143889
1319097798.2905683517
35885623.5981159806
59176122.4766312391
49379151.5039822608
6728532971.2567768097
973115908.7930744886
1571643259.2633631229
-4205027.2966502607
-3687128.7093625111
7601196.0843840484
272718570.5053207278
207170580.5300262868
0.1615939000
0.1910097300
0.9781565300
204048679.1836635470
43093521.0406616926
6497726.5212645391
-1901996.2899826388
35704132.8310484588
557694701.4078662395
327864045.3573543429
-14070494.2901002765
1224630.9475406911
-8247955.9546649214
863894831.5443525314
218570948.0787293017
7519440.5887423325
2970690.5094593032
-4517438.2503024992
571544180.8524457216
134043797.0585388392
0.2272567900
0.1783886400
0.1898532800
423447428.3483362794
8816733.8031260502
170568227.8012187183
9079024.5063189212
-2758714.8375487379
-18196486.4043014161
312374754.3782830834
455055175.9329811335
5505587.9816275910
-1801895.9062047678
26742710.9568223283
502082235.2544627190
372523751.9952718616
0.2202444100
0.8904672500
0.4094329300
264036349.9140132070
36541391.6344692186
554308174.3899739981
0.2687168500
0.5440244300
0.3010924100
120368078.6964784563
104927253.1792961359
1096167.0738932299
-213411.5133235249
67.0223537690
3054.4481685739
1106.6749250614
1340862.4895869726
-74381216.0456420183
4001203.7012893115
1325640562.6427662373
175486.0908101055
618587766.1769222021
3320395.5569843058
-4507065.7567632226
-1160813.5648626646
417047317.4245536327
262380.5669235832
1152266199.2627785206
-1321526.0465136806
-2236250.8753722850
-1918675.1489001510
101304781.5204019547
220857420.9369578660
-9135612.2141938582
1556142.6240867781
6207291.8201514408
862304912.2120399475
-3036300.7341734152
1083405187.4517228603
7495650.8005559752
-19485899.8578265049
228635.0565373214
706887938.4934853315
380110577.3216161132
-3627176.4730650824
-7324242.2686416321
7701749.8222954897
-16921093.9475534223
1748737408.6169197559
268627502.0623810887
3724070.1379494467
-4329050.5023878803
-76821784.5953910202
-31417256.5493787453
8214806179.9124593735
3214935.6862158827
3161673837.6751203537
6429392.3035983201
-51106211.5719104782
685796.9026334010
1103344246.4479799271
503739675.2238625288
245835968.6240323782
3698635.6773142121
-12110793.2218063120
-16593735.5313136559
11676847279.2492771149
394702274.8610403538
875559188.9090912342
7895100.4527637269
-3373581.4567626282
6751220.1544109061
1409417804.7176928520
1420931.1549770646
865210355.8201574087
-16655479.2457268499
2934559.6834640210
-414295.4189246137
2355541599.8726205826
103383851.8567147404
624538640.4721860886
-21319706.7578998245
41701.0716930531
4618156.8498912081
889036686.0336331129
1462339889.3535380363
-3600284.5392600289
-652401.8622997485
56132203.9305687696
7954298495.7113580704
1331465.8378680386
840224070.7851728201
4794766.3453470226
2710714.0023468630
-2110391.1003441014
314209901.5617334843
59436566.5451579392
3212194720.4594655037
781806.7196621965
18384282.1196639426
-5195986.0361598246
167867846.9445695281
25705.6153033415
1184903464.6254541874
0.0385518700
0.7712199500
0.9709348800
169439834.5907530785
0.6519338000
515259791.3729737401
7123699.2172524007
3243850.6295315251
2936984.6381211337
188888607.2908440232
155460934.5636918545
2554988.6060906877
14764594.9664138667
25833035.3058201894
2716746870.2048611641
-643182.6627124635
1124678903.3420357704
-17289381.7360763475
2754680.2522208509
23342609.1495410539
3799477197.2758955956
1913315.8981504790
784542580.3658554554
-4742862.5869460767
3913554.8478843169
8542134.7117988020
268217437.5463134348
186475372.7795810997
600684.7084327227
-1947779.4103205141
6851221.9498662753
462896883.5245265961
707187.1677008605
1667548038.0583498478
0.3869343700
0.6426566100
0.3296436100
540864285.1180312634
0.3832478100
559734458.6912419796
4948323.1510399431
1278645.0388503305
-3145881.6562987510
545584044.9840098619
383705152.3333851099
2899887.0433450849
2744857.9031971353
-6291658.9945980478
117003216.7643708140
190749317.7702619135
9842417.6857777815
7040673.0300109033
-3561903.2745168908
526770417.6926344633
1090827.0881994572
3693021149.5615067482
0.9594928600
0.3537850600
0.7341513100
323522537.3750427961
0.5732879200
2277832490.4488177299
4785454.1105944030
-2125530.4629534078
-3572027.6810764843
703557315.4090859890
251420895.0375294089
21158758.5609716624
37251883.4382936284
-5162364.0899904380
324751206.5145682096
70969942.2915499955
2134813029.2392277718
0.3030464400
0.9440245300
0.8562706800
423271301.1460934281
0.8843964900
214096153.6448622346
-15065303.8532897029
-9714341.7987635061
6236649.7122770566
3206993815.7073230743
3816869.8353304155
641220658.4093765020
-7481691.7869199254
-5869094.4903511954
-12395294.7166210096
1151363245.7064666748
22224.7736061119
656430545.1552290916
-17944487.2169989273
-27958332.2364362739
-5031751.8996971166
192093684.1882658601
210997724.1802308857
3469073899.5131530762
-450273194.0379058719
15674680.2618679479
65539091.8171585873
2496961891.0433235168
-1291607.3770002578
14153982286.9594802856
11922405.4106186014
22924022.0688044801
14615984.7871967964
3164747748.3933205605
84333288.0311600268
652853245.3287692070
-245750466.8534376323
41152247.3097228557
40170538.1943154559
7826675142.7939796448
106532174.9637737274
6298905837.6683092117
-11133518.1899850611
-20738862.7405992299
4029245.5040133544
1206437508.8009545803
117588731.0506830215
496663529.6739760637
-19034191.1561111473
78535732.7848694623
-51388876.0392715931
1173436.6395348213
1845651127.7395329475
9753053913.6596202850
45572424.7391532138
-2182685.6610516184
-5112563.5532879429
1263781692.9250545502
514903576.1211891174
9660406734.0573425293
-10782110.9495610185
3411606.7373759276
-9632617.7910769992
967970015.6358084679
-761415.0298704869
2305464115.5907211304
13156935.0210321583
13304878.6530755591
11841316.9101298284
2111760408.8330059052
-1445.5321226138
1332978757.4701929092
28516749.0931054354
46701690.6791985258
12319675.4293415882
1852261925.7919750214
93879002.0092067569
1835410966.0601170063
626023.3826621916
12.9912297793
1331936.5386178968
3702.7076313730
4539.8132190464
546503.4835416210
-3796854.3751931638
2391131.2699088268
885373792.0171632767
85367575.5748022646
-35988.3720478963
-1467993.8662144321
2.8112335790
-97745.3027828690
5001.8752297306
4875.0694182731
1402807.1073755333
-2.4156214768
1594222.7763227439
4661.1328874485
1916.3754061758
1105745.3459176372
-479341.1045886753
-3859197.4433279424
1279588365.1110253334
93479606.8581887037
-478208.7412882374
1097433.5978098998
2219223.9680597153
4668031.0626995759
327274363.8885676861
98782570.0827851444
-1084305.1052395755
-252402.9158738388
-2191730.5083659384
76708.3718069577
1064826132.9395775795
85229898.4253831357
-405617.7337858161
-5379688.5597278634
20809817.9274462946
3312580.9642284303
765740183.6859620810
181182247.3306548297
1961070.4030971006
198190.4340937343
-13214162.3871482164
-2997042.0499045695
1031234375.6433831453
109833323.6085729897
-145842.6125969809
6796504.6749882931
1604995.4610408028
-18663644.9406221285
2487697490.4500088692
463650.0517739520
482149354.1138761640
715441.0545626999
-3852226.0963917966
964250.8187020400
339400251.7985205650
182095803.5421907604
-436608.7437195322
972607.7813706757
-892384.8489998388
5645820.5201745909
1268990969.2874381542
211770020.2288673520
-1163040.3242346551
438187.6196857138
-910578.1192439150
3533121.3943227185
400335775.1049668789
102058847.3371338695
336611.5693694348
-30264.8846349888
13.4918810355
-2436912.1102024484
4609.6606521651
3429.3631080350
-1168662.7454192797
374436.5939319560
414113.1393180719
43820.6750748331
41318836.7933854684
5122159.2222963255
755055.0094463599
-1804271.7487401750
-8023322.4513469283
178657272.6463593543
73337871.7024113834
-632545.9428081691
1029071.6106150242
-26.2783466757
-1465210.1645332859
7378.7685785419
3315.7967657596
737038.4119121738
-0.1375446987
1154490.1330524110
6086.5923058093
2288.2787576485
-1101184.5760550741
-6.1500005130
-363953.2934059896
7476.4816048736
1691.3544836835
1036530.0647391023
-5293635.3356485851
2203367.4942032951
1391076062.3403491974
155017798.8163647354
-110736.7526047602
-2048794.8952395096
-1187395.4806427520
-2474274.3893945869
634090005.8345798254
224222368.7476697266
282094.7359690586
-45455.3382691533
4280510.9194978084
-5498519.6372195734
1445219681.0424153805
185489944.1664556861
440686.9195871825
-1216577.0707061207
-2466658.7064425782
-2321306.6372102215
1173392124.4574694633
241759476.0588945150
-316191.2079670992
-1266908.4196877556
2012730.4343244866
-171604.9224558760
1269567742.6624603271
132937083.9275572598
268815.5835209143
2576227.7055293401
-2935738.8991246754
-1693575.8922612402
757558356.2661763430
203216175.0021707416
-548261.2516417786
829747.0303312495
2.1641405253
1699184.3982024384
7145.6163716549
1986.3819464670
140241.7101438268
-5148607.9510514606
-325420.1707144308
454010448.8079403639
160611677.4460332692
-46628.0194595374
767327.4771504862
-500477.3507372600
1516199.2353996639
276345228.1428772211
193578799.6636473536
-528214.6450927061
1532153.4630466960
-2171111.7112629963
-2009479.0421242304
1335313721.3382353783
277758999.7529888749
-665440.2558637157
-1214526.7207857717
1288602.9374989122
436613.8613182343
1261244745.0346035957
165164045.8940367997
919246.6277993571
1631390.0926493001
2234190.4227565103
3240258.4774324060
605701180.6595888138
161501811.2036402822
-102868.8811548317
-1189835.0122739444
755891.4748771611
-446815.6151892955
-502650.2162960600
86306445.9230440557
14930874.4937770385
-634516.1903048564
607256.4162823261
552347.3211672565
442522.0500741717
86099732.5760752559
9014633.8548142295
-1363524.4254012459
937602.0758923882
-4949053.5399559867
1598109296.9582476616
288604299.9583936334
1511280.1703050823
118066.1824534064
-5556106.5970238158
-360392.2422813627
323259230.6263449788
257006021.2542755306
21752.3073556274
1074524.5976764951
5.6017771496
288191.7543113976
5728.3322976190
3844.1491963822
1321684.6621453045
-10.7662450738
-1538583.8342201242
4559.3039294605
2242.1216286791
-1548240.4088671266
20.5071350723
-2354154.6161959395
5046.3692627968
3557.6299682652
-3618396.6789335702
3741677.9091166779
-2192310.6761702737
1531831017.0769908428
330562331.1528922319
904684.1233242538
-2320147.4356468846
-5386361.6401726650
1388292.0518107060
1464393583.8360209465
211010321.5351943970
-958484.0850046300
-43996.2111931516
1004669.4090108146
-4311511.7218538858
878005425.2311111689
215105129.3126428425
-139518.2834687933
1058540.0252109852
654676.1282109402
571323.1815139941
425100.6438869996
56482901.5267792568
8098469.9923921684
-67507.9124406005
3213808.1755231339
-234645.8808859227
1329414887.9377560616
397268747.7221286893
-610792.4487890742
1554424.2455580418
-1970437.8306111810
4292544.6691492014
675727755.2386369705
367768048.9818081856
-640364.8074021094
637145.9509417625
-2866043.3111352772
1418922.3356145166
1159234903.9145250320
261619447.6202341616
-396535.1846215540
-2012947.7983497011
-2306340.6603048113
-3692887.2149751675
740306753.8941433430
282364458.1435030699
-129085.4246497393
470832.1985475711
3608190.8755251691
-852919.4660376153
1122247688.4625303745
325079498.5459477901
204761.9210266254
-1728946.4184814992
-2969158.1293380847
-4958075.5952495905
1152981763.6654090881
107196851.8287918866
-946028.3493044584
133555.2747576997
-278054.4323774609
-603503.9082836241
-598948.9236628008
74919844.1221854836
3376061.1446676697
-574599.5562339912
2988690.2963878880
-4903477.5925357714
790930755.3264219761
246503734.8856203854
661702.1278560862
130400.1391304139
-3405754.0896485145
-953212.3001770361
541377820.7769585848
130422750.1621917933
345732.3032633844
645040.0531251224
2509358.6913107191
-1268693.7467974897
6731.9832291776
13304125.2684917301
198218022.9739236236
-949643.0990931003
-1316884.5632480518
-168214.8611153727
29326.4434428472
7421949.0843026284
326495930.0530274510
4622166.5937189106
-1448350.1040101536
2318051.3466517259
-21600.1804173193
5603653.9576825881
330886631.4022388458
-3018378.4963568351
1713897.5736874677
-261084.9733462858
4569.4909186874
11773225.1706044544
245249185.3415866494
151895.1156258641
4673054.5286781574
-3851018.3817471112
394958267.0843357444
112525977.3528665006
237435.6094722495
297663.9242947231
-3507936.7714050794
-1588263.8017623511
607209394.5686463118
273438630.9710711241
-895001.9429553183
-234999.8277289227
28.6940537651
593980.7743783091
7822.0405025411
3602.2586250943
-898799.2588939777
-5.7320838890
94883.1783686080
5800.9692328547
3900.4429069998
1225084.5858030631
-17.4603873663
-2249173.4891257789
7004.1449940545
2516.2047530302
-366205.4501076668
-25.9696966146
708678.3287861565
6119.1463380386
6027.4024149284
2486669.2660387335
1157400.5524030961
7699689.8918452477
1199116459.0753481388
277794587.4465711117
373883.8885305208
-260087.2242082731
-1748056.6579109391
-5546414.1634374885
1264953711.3203642368
234161284.6637403071
-104936.2216103418
1319174.5200065356
2193054.2907202975
-1935979.7085954540
917128312.8702098131
240629348.4531816840
-74404.7521265463
536501.5287139730
-5262014.3456252608
4056079.3043890093
1260090960.7598268986
192798814.8908399642
-216355.5086206394
594546.8233907411
-3920953.3943316927
-3597330.8658639919
883152975.9022842646
180520147.7999476194
-358576.1680819997
-668223.2621108391
-370931.3779544094
-129.0654801937
-8779.7250729829
1199917.4512577397
6615513.3158747843
67797.9874880592
-272796.7151435181
2577472.8787359619
808683289.5776962042
135939431.2013433278
-222973.1193282630
176729.7392863096
2927937.3533726302
4108280.6392350369
1379259108.2629461288
208106234.5583024919
-244111.0610486776
-2826390.8386877188
486597.3386806799
1618764.7086895430
64456.1269632668
75789858.9801838100
244318814.0105974078
179926.9587692581
5321425.8488635411
-1053159.6598887884
1176471399.9829480648
307626501.9142713547
-18276.3433468413
955700.2635943317
-975027.2271920773
1362520.8136610691
498066575.5613584518
223538059.4945810735
-451714.3835225863
-439047.3212323858
-7.9387472673
1286982.8305295508
3645.4813596300
4046.3913670761
-1096202.3831422704
-7.2852917859
1053140.2625015343
4539.4396805241
6205.5560751121
213849.9145279995
2.5521253931
-565600.3447205848
6471.0024382629
5138.7537733012
-1801304.2150974248
10.6645448756
-119837.0008829254
5273.9800113223
2895.7800849457
986237.4559593849
-20.6268372462
2588797.3009738000
5423.8223253290
2525.7116815076
2280521.2979169823
-7405059.7914792532
-380834.9921089726
366889403.2615366578
234606438.3159843385
-400386.2473126417
1940478.0122235925
2044603.1735316825
665586.9589877973
35255065.5949345157
-32553.4693337637
1079748563.5664045811
139998588.5564540029
-32176634.4621098861
-51983115.4525884092
1609859306.2623469830
-568327.2249480160
3905201589.4306340218
-1549484.1265950946
-309867.3832890401
-2120.6176375917
-314586.5997490127
-1461948.4814743118
49704462.5482558459
-98211.6322992458
368163090.1357472539
239457.4283737616
-252584.3189486882
-337.5915982411
-9858.3178947053
6546523.5459505627
793066.7284570438
835146.4687352555
-1019504.8135357684
-3166993.6808704236
416444169.8630955815
112151218.8229358792
-119262.6862140564
-1286911.4083250349
-39966.7250842413
1236416.6399396721
624135810.0443097353
50445058.4517930970
315883.0717263807
-538904.8340997479
278661.3804453796
2553084.5908065764
486091628.5281293988
172880147.2769099772
591941.8139174294
807290.3135568947
382805.3929206707
-164727.7608049917
-179905.4573656547
35468771.1621666625
3383810.2099517249
-16217.5210501565
-1880693.1783001837
-1200898.7363465396
424659404.7919067740
151893577.3123146892
-255037.7178196550
314499.0622318190
-3003634.4090856346
3275331.2339967368
844646721.2588002682
181306825.5953952074
-535639.3961188622
-654198.0265910134
1857299.3711034087
-8050900.4175354475
379802267.9121872187
117597270.1731376201
123720.9930499971
-712982.9949439401
-904384.2166589934
1025894.9149907945
231779953.8101435602
260837426.5260012448
201324.7804447220
431187.8891746166
4529300.1505670445
5244003.7400722923
1152555884.4411849976
130501176.2701809257
-252893.9299937906
1313543.3999571719
5.7755191013
954411.5039317039
6928.0885106582
3207.9896156401
1914940.1220205151
-7048392.8578766212
10867184.1513356511
1377204689.0477774143
63133384.0866357759
639211.0791893243
-135332.9376998149
-4294308.1031077541
-8735907.5355286598
457095720.6122862697
192857238.3807105422
118993.7574226383
2028973.8912561634
-2984166.4694290757
503881.2949181919
64079313.4962888584
-4071.1116982634
942242584.7921861410
-2166362.0057420186
-3691293.7677174588
348463.1195699555
34886394.6774403527
-62949.2314682336
654646807.6909008026
-148208.3156949765
3336075.3064474836
1780649.2208616040
4397285988.7066831589
450499.6629737709
195664257.6765891910
769882.3364677840
5901084.8277137419
775412.7985567368
649225783.6741391420
281886410.8324724436
-335262.2597793297
84294.6984368400
-3939090.8281287649
3471790.7627082677
337669680.2675726414
144818626.8382910788
-368379.3036659122
-247678.8087859516
-3459058.1166844680
-28047745.9939789958
2706667825.3637447357
-119637.0962164776
218787451.0182595849
609751.7543131532
-183378.5802871980
-615219.0705000384
-7199.0263629261
30090327.9144682512
156302614.2401328385
746405.2514384938
-4164684.1161994501
8566205.0857460350
770679432.5369869471
194699671.8680417836
195316.1507964246
-466741.4730216559
-1294016.1853369691
-1392461.6429976213
631272660.6319909096
210283589.1232546270
279001.5138982202
427063.6367566168
-8.0233567274
2361588.2759436411
5092.7607199359
3494.7328592480
-629141.7227524508
-49.3512110552
-739348.3696645682
3338.2645390310
2289.1295736014
1128194.1569138246
829390.0179751416
-3420876.7367455843
356264152.4559359550
258483417.5303785205
-327107.1290462586
-353083.0581902479
5206451.9677052870
-7526117.7294721566
1026189337.8062553406
175627203.9239961505
-21779.5824863536
-554462.2390600797
-3207792.2113454142
8616451.1213447098
556877653.3026701212
209321053.1303450465
251926.7293010384
900221.5798908764
-119885.1519535200
-2485.0066089745
-80328.1329231905
11499288.2192625962
1735017.0430798975
394861.2959114240
3366179.8235545703
-341870.2410263600
221735365.4085127711
234610393.4583537579
-595676.8304263521
172795.2857795754
325902.1518692861
2640030.6679360918
584366314.9423036575
78788868.9896860421
-131307.9183055219
876269.8204245486
-6896989.3652613852
6560504.7175268456
926330786.0565242767
38815957.4914101213
-602987.6251203015
4898.3502374791
-10.1392872459
983202.4589754947
5009.3333998378
4779.8095481051
-5985952.9108681548
1699376.5490795362
-1138889.5554303839
73615.1604725799
68085569.8469253033
644917461.7366960049
5090685.2528580884
-3571686.1290320475
-1033522.1127626415
-90748.2589680736
89780400.6780740619
216291292.3888397515
1316972.9843856022
-1844664.7030179284
-5028139.5613064924
781507039.1517376900
143524918.2184373438
-977355.2335430724
78516.0429094308
2609059.9728664523
7826135.1443258775
264556404.0317292213
203831552.8930530846
446376.7822153548
354965.3695135528
55790682.9956780672
-2465444.3099388783
1296350720.3176388741
822723.0443599350
1123147325.4879195690
0.5178164900
0.9441243400
0.2233166200
282440437.6342639327
0.3118930700
477038596.0335279107
-305545701.2470853925
77963564.1986586899
41890015.4036407024
2235458288.6870541573
-721173.5089619042
7140103602.4215450287
12206749.1490636338
4767956.8583779223
-9865695.3383008130
8569480945.4711208344
224723250.9498721361
440690705.4810706973
14821717.3534171451
8129630.2412981130
2766651.8766394584
3995036695.1577320099
80353275.2884526253
283757083.3076196313
2355234.7155493903
90845082.7162513584
-11715229.8052837644
1471857978.1673772335
400923648.2747727633
533415041.8983721733
23054579.6888356023
-4507611.3711155606
19453487.1363927871
606377043.6352655888
402806.4131536770
635592299.0204930305
13397587.0160498060
558296.2729024180
-1751331.2353246051
230476292.9434628487
224965768.7535640001
-13836376.9426083807
-6321986.1140304618
43578915.7813746706
4224666351.4168167114
-914666.7855027003
1021099477.4626156092
-15575920.8139112834
-1230202.0863040106
8630729.2449679207
392438090.5916879773
221910085.2286907434
8647909.2374524735
-3116065.5057631219
-8959362.4555766247
246782728.3499517441
541901286.8685376644
0.3206672700
0.0303525700
0.2489207100
146231438.7540492713
307538913.7458063960
-7720704.8156196484
29829962.2060041986
-16715721.9901943933
13802082736.6403636932
2018314.1094615827
4215781719.0387811661
818478.2618454235
37095312.3031791747
8342030.0708955145
3601931884.2723698616
1577664.5907108509
193198975.5452526212
-16637577.6738788560
76749026.4271243513
-18451767.5172164217
17983949544.8594207764
1063858885.7252671719
1597655664.0753109455
2108783.9763778113
-191643576.6522265077
-27315023.7257297523
1811185010.1412861347
-330948.5547605940
763767272.6182750463
0.2273970400
0.1912950500
0.6162467600
550382954.1514337063
0.4402157600
341327985.6576382518
-31235815.3783510253
-2424356.9298716811
9151370.3830056526
753227177.7721598148
21892.7884243254
590740436.5048322678
-32445071.8225159906
-52478656.6210086420
5028669.0910823783
947943122.9518018961
12802.4840807693
104609324.6294734031
0.1120852200
0.8679513300
0.0206473400
106241955.0770489573
0.8539632900
16531524.1703822948
0.3911848600
0.4481974100
0.6731061000
1054785615.0703290701
0.5725913900
976108566.8838301897
62671913.0590429828
-65705330.3983554393
-19057406.1277207136
5289892564.2174558640
290907071.3559614420
445533853.9070519805
-12979486.3385818023
2855521.6348791919
-6632199.7732643802
293343185.6324955225
122586926.0309908688
-3890959.2128539286
-3444396.7935330635
2121597.8797618030
281763981.2497821450
73497196.8875312656
1408577.2052478394
-848418.0266497418
-29256644.8690184131
5229225275.5454807281
-945627.9147117549
1514580801.7773678303
456371.6583683940
8893667.7060186118
-31520677.9109825119
3395248286.0125308037
-1477939.0802539194
1307750315.0451633930
1440631.6497145463
-91619528.8765980601
9394819.5054154638
1484194856.0002517700
1212737.5111001830
385760909.3849718571
40637093.3795297071
15837582.7699741833
-28985787.0249545537
559809923.5394303799
-1868306.0282932899
2125169586.4698343277
1738920.2994069317
-45538292.5458070710
-2658060.2183702108
627786974.4770913124
1477142.7413834443
765186578.4151020050
36411015.7067537531
1649144.8641010285
-28386481.4274505042
535483667.8103452921
-93906.9054264363
1430803959.2447750568
0.8758627100
0.0460003200
0.5584037100
156922486.9697342217
0.4410233300
1576902841.4642987251
0.1973053200
0.3166233500
0.8695421400
966758752.6784363985
0.9683798600
435623660.9829375744
-29448818.0025340281
5321632.9484851724
-15333557.9672257788
254158053.1528930664
60791301.9882302433
4759277127.4554395676
-46972914.5466525778
764180.8983249222
14094948.7857689820
971785797.9264961481
1305403509.7140948772
15840978.4873104021
28071055.2614461929
-11018467.6871792078
1394591393.2771549225
1299847187.4697725773
45445843.6612723917
11345737.9601559062
-44745180.7773621529
1682986470.5892543793
2736142.8130764165
3571756211.0263333321
0.8441223000
0.8355658800
0.7551890700
149784177.8676997423
0.1521892300
284763511.3988977671
-400771.0153728972
-2405297.6320852716
-2734325.3793840474
164121223.4733727276
125866464.9652017653
354661.0286793620
448388.9383359594
57.4183170775
2014.7891254565
3036.2546238558
-368465.7384036636
2050387.3318886170
55.5465932859
5951.7564272314
2896.5250081583
0.3885536100
0.4595845200
0.1696567400
348906875.1111300588
0.2278131400
420144185.2851299047
-35093.0137436531
428049.1679725552
-28.1925752303
3793.9752125849
2731.0937396118
17551001.3621523492
634995.6600470658
21763523.8706248552
1515128970.6037750244
195389.1129406717
2509995043.8153176308
-10311809.3747158181
-2125787.0631484981
560249.3126124858
216796326.2316578627
375488375.7436742187
-7332374.9603737192
-892560.8585953206
-4706438.5711189788
538315516.0771745443
547279690.1206810474
-295866.8093832246
-1384913.1102238451
40.7480004952
6919.8007382563
5748.5340960589
-1607108.4386956932
-916593.3112070650
-49.1676684683
9548.7284813655
2946.1692805940
1238673.4691585663
-999299.3168002808
2.9857906180
12893.2473046112
7593.6655858412
1217992.0445547823
3390317.3420855999
22.9282434645
9577.6122806453
3303.5336050773
2217735.5908366363
5029433.0437082984
46.6401938785
6945.1648543548
5674.5788688473
-156985.7001156120
157818.3500320345
-9385509.6848395001
464541284.2080858946
239241157.8581336439
-821255.8648201568
-1588722.6038119590
194.6940577063
8584.6963598411
2582.3553313653
0.6762599900
0.0215516200
0.1624121100
595617743.6016221046
0.4127280600
180700736.0143321157
25433877.0253515206
6411716.5943067409
-21389890.6264879853
1021240724.4713981152
420246.8700449527
1667631645.4432871342
0.6451913300
0.3914788000
0.3806362000
310853805.4691875577
0.1009215100
780246821.3262969255
36537974.3539935872
6803066.9579702197
8292034.4694320746
605529796.9887664318
162489151.6335389912
7872159211.1307325363
-24928017.8778067492
24103648.9282841347
-118332.7117307531
3707539551.8896951675
3011866.0178087521
1490031914.6809246540
-2961322.3480723035
-12456177.5819228161
-8572012.5663964450
840581982.2832518816
1243175.6558512372
601273604.0792963505
1122554.8709846567
242108.7772714707
-570508.5570225366
29146490.8461090252
30105.9918716062
630853538.3575063944
1272876.9723776432
46169.8132458088
-337343.9496752733
36963103.4705146030
-16309.6665427733
273853165.8718643785
-186922.8291912666
-56239892.7225049362
4255945.1294937991
1035831732.7564164400
702687.8373531932
381353043.0550630093
3203964.0122547741
-1574908.9186928642
-30272228.3727289215
1169052627.1834216118
144401623.4121260047
16920056455.7238693237
12951341.1304794196
-49425554.5658989176
-8478921.0629811827
1733086658.4826281071
217577.6598917487
1545617501.6603910923
-17888793.9554517530
-892845.0804051568
-9525088.1254568547
404904295.9762129784
502390583.5208370686
-184678.3494303463
1424947.8049942472
-4762.1016780785
-114792.2490683312
6327191.7759755664
2038254007.9925680161
0.4055236800
0.3030360700
0.7283934500
521224677.1990044117
0.8699188100
185700023.3492580354
-16833499.5885074474
-4011209.2664247765
12947161.5353989471
3506096775.4112653732
18568432.4094706662
432465815.2629343867
3820320.0039879964
-67015.1794784033
-18195301.3736038320
259332260.5959729552
476569559.8169123530
5030131.8921792516
-1558353.7176636651
-17448985.5160387494
472025098.5478484035
511893250.9790731072
-13495213.4297154713
10255055.4309055526
10515056.6629095022
1092188413.1532654762
2035482.9223185699
1438910991.9821696281
-5061398.4805684872
-1915896.5684518027
2217138.0767758600
476247052.4472416639
252640408.5470063686
-61978.9260491255
2868921.1224105810
15288863.6451804023
189135792.1729519069
141342747.1148818731
0.0952586500
0.3170034300
0.0712492100
134287713.1895434558
0.7034282000
3246077629.9848351479
-1772979.8069762129
1521480.1576831262
23981252.9848555140
212686939.1654923558
273926880.0182716250
22453540.7081709467
-3244029.2991112252
-18165437.6030764207
601150338.7599463463
602349.0838925302
5690269815.1285047531
2513900.7714274088
287519.6333708328
4595625.5415138109
1071160.5491621455
-2578790.3565628091
204446375.0989060998
60368554.8122526482
-1864.1843253564
-75748.0064924766
-5201470.2065930702
1366747434.3723392487
66144526.9408828691
-25107.9119133371
0.0475798700
0.6985123700
0.1969154600
293258517.0225262046
0.9022187800
414080264.3667344451
21378080.6409132555
-7329600.4519838905
17832284.5043486059
2465695439.3152160645
145742.1422626275
1379558414.7223415375
3365338.0457138950
-62778362.3588307500
-17371206.6160476580
912820837.2193547487
40941.4573555335
231221222.8340029120
0.4620260700
0.7550215200
0.5857346600
296539181.6663932800
0.0662841200
29785447.0080785677
25179147.0646003447
19190791.8285166882
43590114.2777456269
653609423.6363829374
195711132.3605315089
144507155.8258090615
-20024476.9498558156
44990979.9913725853
4565008.3048486011
998938651.0567126274
22870157.4276859574
30096984.6132058017
-44361601.0332555845
-2105793.9610892315
940026016.7639203072
147002754.8803766966
4645764992.2000741959
-8531004.0371317882
8453387.6189727932
-22222881.3313245028
1499210623.5611202717
1422030896.7869033813
30439098.6531306431
-8902259.3118939921
30040471.6158437505
1199359930.2877414227
314735343.3148831129
4702725729.0231256485
-18121039.9608049802
-1770023.5793453571
-1444756.7001335772
599641911.7366588116
1065268757.5070061684
-22822515.7245029695
-60608598.0635313615
41022011.8439291716
613861.6961539018
1166536725.2068707943
4276235158.1569905281
4306418.6062541800
-34480746.6476169005
16852545.6552147083
727345457.3851413727
2767198983.9547014236
4305763068.4943361282
-9757852.0080729239
55187695.0419778526
-8578135.4732830934
8996599173.5262222290
529424553.1556006670
1200785287.8230521679
-2115022.9300505351
13341585.0231974274
3267801.5595549531
1620898208.0564813614
363265512.2686606050
8748030340.0713443756
-9970174.9924491141
27439827.1014648378
19144660.2484637275
1670781372.1868126392
-112663.3790864163
2142848612.1124033928
-24257470.2215326354
29976497.3859898597
-24765359.7117741629
2022115224.1405053139
80715210.7218759656
1358755569.6695652008
1383440.8574707189
-559303.6791492765
-1287.4675783179
-36627.8342928353
19756459.0927374251
2707358.1544937193
252008.8692618147
-4645657.8387048040
-8570786.7884514257
210666439.8602995872
62502416.3690207079
26508.0359900279
-867860.0878125026
-3408625.4254114158
-910533.0910064767
1135580113.1351771355
116516166.0124610215
387074.6633964182
-131689.5179078213
-5400711.5162577443
5670354.1468440276
551516022.8642518520
170786315.1575682163
-132510.4549742569
285417.4888343029
4409030.4519872302
-5609679.5503152218
903924405.2038035393
53748425.3831148148
799649.3455628998
6574658.5674570622
-10976052.2419445030
-1080261.8636517704
1577651264.8483722210
212868369.9137662053
-1461561.1976598874
-3752505.7075076555
-5243755.4226369727
1425325.0730710600
2593169000.1403479576
-975198.4795096351
674819966.3542518616
-984082.2829031857
3827679.1539197089
-6161910.7512197010
606457763.8142384291
141914463.6697571576
201994.3888403882
903890.2130335139
-4460470.1884169905
1091777.0268239882
1147186756.6597323418
80129008.1719625741
-672250.6059385466
3969567.6563440771
-1215900.9064258612
-25086628.5207591131
1923420127.0885157585
-36588.7878348923
412945605.9336369634
1186763.0142968188
-5628738.5436623218
3845465.0011837520
719581083.1054632664
63847942.7426036000
-1044558.9028899536
-297054.5695358832
-25.2106829220
-1419683.5935541510
5505.8567036578
2409.5855272879
1308889.4379588563
4390.0120052236
993168.9379323332
-36668.9928389509
26265591.9887731075
89755701.3597366661
-356579.3291757891
-10.6488162098
-789185.9832771728
3491.4497376723
2818.6369462394
-903408.3663230591
-24.2156939002
712719.2106383668
1868.7870413395
1519.3114104667
840225.1102387096
1022504.3650806425
-718657.9843695118
629290637.3283712864
91264782.5029819757
62459.3462813875
-348286.8334291904
1395801.6499836687
1022316.7711002737
870259472.5027185678
206323844.6310318410
464650.6389937387
1012697.9187140370
-4331178.4742957447
375814.0223100169
840557392.4825032949
269075748.7996591330
164083.5416659342
723407.0763812003
-1016823.7789740609
-3365775.2757813646
1482276984.9369091988
119955709.2732717097
-202306.3417247332
-632959.8099752063
-1613678.9706629582
1064644.3991882557
581714454.4550923109
133499924.1709217280
-86340.7431760984
2606857.6164390636
7236044.2628054488
2924737.0866187215
503303695.4736569524
120297979.8118105829
-45287.4276468829
1892900.6577170826
-4792181.0538630122
1334821.3133321127
1273840701.5771582127
383395875.6116780639
-621405.1998498011
156393.6534942464
4162556.5154172629
4910720.4752870798
1531825345.8615553379
158202354.5297088325
331035.7183423237
-99228.4850842461
82258.1691681360
360258.4368175669
300259.8818467029
75531074.2952022254
5486115.7464820556
532340.2759901332
-1644314.8603097121
-6055328.9945447752
451400172.9831687808
146078194.1223906875
-794576.7193426735
2129064.5437293001
-5909376.9283790477
-6468411.9078090927
532222384.4645931125
264312833.8606886566
-1205021.1491702192
-3824080.1479720850
5634873.9490899127
3244928.5136388917
1128679575.9799895287
181442564.3424120843
-206706.0749343656
1137228.4962176515
-3916523.6877174419
-835110.8409244330
1198275986.2495071888
143725717.1224796772
609054.0081056743
-1271729.3929693981
-4531786.8456449676
3195087.5963384355
869396491.8055641651
436074816.9392261505
497517.7873330539
1144068.6000927291
-1624238.6100979911
4276346.5518305646
951642408.0665080547
212342626.2575104535
-618500.9812110852
-769683.4057349365
-1009791.5811213884
-496053.1780264162
-444901.8558837788
44309314.5834650993
5753794.0792112434
-302804.6199859084
-243897.9128537618
228413.2434931397
127768.4650440844
20041480.1456893384
9963430.6065422669
-289946.4718678374
4475696.2726460649
2732760.1352456571
585832878.7591130733
320383182.1948873401
1574859.0471626238
169661.8086742217
-6231312.2474369537
-2858905.2675908129
1543364039.4277462959
229363220.2450799644
-199218.5855421666
668185.0436235761
1061742.5628836553
4525706.6511896858
1559059437.6102478504
303408882.4200949073
15631.0622857576
330019.0185089427
-4051409.2031667829
-1868431.2413404044
1394275026.5480685234
343435037.0193165541
439329.4697791003
-895459.4627611458
2411255.0599931902
-5731965.8363431757
850805659.4898333549
166929351.7830477357
217270.4074336806
-2038916.5388567860
-615145.3407583669
-1096.4010983143
-24644.4568476309
4687008.6261254046
1402048.2434399538
605935.5539160770
585787.8959575162
-3085961.1228151997
474463872.6831322908
93241136.0294846743
-302860.1595778061
-922330.9888179938
3428244.1745634754
630291.6056364767
593601594.4952740669
229528079.2279342711
287308.6487083112
683858.3455747301
-12.1512217456
-1462731.8000936443
5109.9579656743
2443.2176862069
-198878.8831872996
10.0087926449
151019.7371187019
6378.3526950669
3665.9392744033
1336775.3544567018
-142615.7001253097
1040045.2114892241
-129490.7998080692
12059271.0961750988
41493474.4759199694
5088721.7717769770
-3688045.9837342575
132379.8937916632
72817.4423663178
80972032.2228425592
417987357.3380061388
-4196169.3536214847
3264619.9601158695
255933.6508901787
70327.1768900236
67203930.4919839203
631688960.9905587435
-561477.4547042651
-9886048.0349400751
-7574176.2903688038
1003479342.5868386030
134182960.2560546100
-962939.9338594418
583262.3264926195
3002644.5675657177
1404227.8490697148
1369125164.9752349854
392125024.6724600196
-749459.9627776982
1731689.8216335936
207620.0598362246
-8073599.7430836372
772313055.4294774532
618828.3023169950
222547102.3957429528
-543979.5831328684
49310.1837662350
-151997.2576718008
-190883.4705169170
48006555.1225223243
9018948.4954727255
213348.5729315111
-559905.5869249870
387591.0072437518
299167.0241340511
62533510.7708965540
1537651.4010161243
1321756.4317851965
-5945989.3626676174
-4116052.9145823019
539031349.5304422379
182230246.2271178961
-83997.3696432052
-134099252.0002462268
27252893.3322302103
48993231.6635714695
1542617227.5678017139
398459.3721453663
4089212699.2150464058
0.4307779100
0.2217682500
0.0427785200
428122984.4244598746
0.4543429300
3126017690.2228841782
0.3709292400
0.7862862400
0.7967488300
155572550.8384986222
0.2639740100
1921844427.7221953869
13198228.3889811877
1577219.7294526065
4150780.8825245467
1000332300.4655302763
1171154.2416022844
4490286159.7491474152
10546350.9203640074
1274101.1356298702
1351774.9541877639
325693332.3114203811
96033158.8597203195
-226790.5181280886
7502461.8540477483
959575.0635371020
235653785.2979130745
808605.3300371720
1065705687.1680804491
-454165.9355922815
16144623.9752229471
-3425320.2677718620
138852063.5838498771
297541.5393422768
218517210.7325234711
1243270.8790386475
4110263.9298906908
14479283.2401634287
3015072048.3532829285
64998.8462989438
703624409.6532603502
-483628.2263349682
-93404535.2675912529
22596052.6316633970
4228807864.9627809525
-261947.8353954169
274190000.3009320498
-1125714.5997571943
8934.0548198528
-3543576.7306687003
211508249.7088393271
143664871.5922996998
-57630.2197412061
-1019266.1262382426
-3577793.0836105105
-393041.8350853921
1190968469.1796598434
164155458.8985542357
315366.3851584825
421084.9039191207
-3390556.7443158785
-2068809.7023461862
929990106.0015918016
94637087.1749510914
-74435.7653964511
3030451.0435637627
902523.2453789620
-28836597.3403249532
1681132634.2311015129
-637541.5744024352
48174342.0358428434
98453.3261350579
-975803.8163751516
-780842.1257360908
1157025653.1518454552
182138983.2233093679
-130792.0782529714
197693.4985635166
-44329.7569364547
-2257.6715313054
-79458.2393813398
35857515.2801536694
4217612.3617860721
1369260.6113109391
-2242702.8747024206
2726888.7842607880
780517594.2601476908
207408255.9899951220
-542256.9624782936
-378490.3439719413
-2749632.0487806601
-34079372.6498251334
2992267988.7090144157
-211282.4940260111
121462406.1796880513
588543.1888842052
612098.0041636743
-3193052.7832969320
863228415.2335442305
170795462.9216959476
-255102.3930382837
9486727.5968324263
2662892.0886899787
-26550653.8480254896
1723105127.9137084484
317235.6489861558
405052087.3419063091
838922.9343219297
579323.6085783145
-433933.1290718499
-386788.8032973243
51980500.5826723129
2384839.8904478727
1200124.3429374208
-2708667.3244450758
-6734973.6164275995
502054512.2191843987
95234597.4165133536
-1244400.3038116861
6308986.2373535549
-47818924.4348164648
-6840215.4963534987
4030245283.3250751495
818101.9651839061
702085683.3292375803
-115545.6032648151
91214463.9149699658
3204824.3538948409
1774008727.3694391251
381298.5899799594
832420030.6022626162
0.3022251900
0.2131625400
0.0635983500
1505370089.4161837101
0.4846310600
164952809.2429352701
2579944.2346022055
2822218.2250657030
-60139.9616115542
198685995.0428517163
154989182.8263741136
0.2469056500
0.7922343100
0.7907376200
239211791.0427844524
0.9827274400
449829645.4818572402
-30856101.4511268772
2390252.4995026784
-13940857.4213664178
1217909283.7715203762
876585562.4538115263
12086592.8912530951
3579747.1973407329
-14992053.3804313913
1294421297.9206728935
684712438.7381141186
2441467708.9738116264
-11956431.0301800519
602096.9115766236
8084113.0919437185
1391330676.2660551071
746370226.3157600164
-7247407.2597168982
-8368053.3524477547
4956489.7995056426
472272863.8548492193
142730581.6007324457
7983112110.6933565140
2335033.2551275748
-34513932.5866553411
-5713147.9328720188
150205563.4328655005
-8580.8438666803
322064917.2219519615
8681068.0547640361
75178518.1466623098
-2990718.8904127437
1354192070.0114939213
1053996832.3676570654
307147123.7151416540
3914593.9263268122
-9112582.0753590371
-8498264.2312608752
3708101065.8900146484
393666.7680168168
1752472565.5956401825
-21629299.1359385662
6708711.2105704397
-11627947.3307263628
532856299.3598390818
163866616.0527681708
12782592073.6403732300
5385739.8067926206
37691863.0124266520
-5279347.4781014360
6826806839.6331319809
-1263069.6242087542
1480150770.8424346447
43132478.2188017741
946010.1412931457
339487.5842295396
1932649605.2774906158
1006185.3435305891
1653222792.8198082447
-19714323.4745242521
7422178.0961258253
3321260.9580800990
547498989.7183493376
193858450.6676232219
4585580133.0422601700
22492606.0075761378
-19821404.9034973457
13090216.7067215703
2196985655.5598359108
403317692.0886806250
5618687680.9558210373
0.6987498400
0.8204142100
0.9493781800
211681351.1495058537
0.8751551300
7217211.8895330476
41269003.0292028487
7413490.3284256076
42987777.8904047012
1458900602.3284370899
452910713.3445907235
-14379791.4523679055
-16103813.4044182561
-40433531.0734408125
1273824362.2722918987
22700.4914015773
-103494682.2818319052
0.9062757600
0.6457438200
0.3384162400
748725369.9543354511
0.3443212400
409207900.2707744241
-383353.5236234279
7315009.0886159725
-9518800.0467054825
1976521007.8027451038
919774.7493549166
705136890.6012368202
11672020.4844216760
-432408.4710353831
-12846300.3186041918
555604260.5505733490
-16908.2249510495
198386774.5129885674
12424681.4530918319
-1206421.0679683979
-7824769.5478619142
1998003287.0771305561
-1075453.6656866595
856242622.9780875444
-4110692.3950685333
-6377987.0111763962
-21639318.6765791774
631973618.7541751862
167777022.1067506075
8334701.3879713519
8590887.2854158599
17268254.8563523516
356181347.1851581931
51289508.7881061956
1744796.5497743152
10992148.1416122131
20399625.1037715934
336258560.4387609959
165726043.2194705307
28167124.8962933905
6410801.6427565766
-2569218.8700310877
282593639.2509177327
1293122.3688090439
2170352011.8904252052
-6453646.4032738013
93795.8339809758
10347444.0713358726
5385065810.0779905319
1949078.1260674708
671158221.5818721056
-40137631.7535450235
-12763826.0713235680
11871386.7466423362
1209982075.9642665386
1592660.3460859577
1262548123.3631598949
-37721635.3993096873
7502662.1987535069
30662786.7051188163
1378425229.5953254700
-314662.0617865233
1285379427.3702437878
1032653.5418856140
34816.4810621041
-126.7933484231
-4424.0038440190
8073419.4496421833
39620165.0675268918
0.3400583600
0.4602832000
0.8536680200
902511754.4140013456
0.5771497200
1039093484.0105580091
8730776.9743966684
2621301.7391117862
-15721975.7681222986
212482268.3495957851
25736350.9692213349
732537928.6257405281
31803906.6084304862
-1555139.0222939404
15855935.8623280767
1015482652.7241364717
416450685.0022761226
1483909244.2798821926
8491698.3527486976
50221209.0087831095
-13816395.2220418863
621451336.2590845823
461271310.0262403488
1344367004.0750060081
906623.3751162064
4236410.3194271224
40859155.0487101525
3812315685.7099351883
-691864.2015685344
2041324529.7715759277
6542905.3066789787
1410287.3714012627
-3806820.3991840738
3036933529.1591000557
139940641.3868148029
1725919069.6454637051
-8061831.9267983977
-4901320.7958946982
18550539.5375753492
905190086.7771508694
-790373.3191230837
818241159.9999904633
11502050.2221649848
14485774.6273536365
4277627.0572577855
5031866059.1029958725
2343722.7756992467
644418212.0868818760
-6505221.7209640285
-1940613.2007216343
1433811.8208564506
150757337.8319279850
3632.8511937150
486994616.7266805172
11970814.3031386659
5409025.5373721505
-986928.6030550413
400505218.4803698659
5807.7633571115
326776543.9026997089
16989200.1977994069
-2679729.1844769577
-11838375.6360289529
1697355050.9901213646
282203.3756931589
1138383476.8392601013
-26813374.9042878449
5031117.3294932228
20752392.3333381452
469661413.1416364908
-273907.2439096047
548598358.1954098940
0.7352974300
0.2325326800
0.9632198000
269192156.9445266128
0.8510776000
726141736.8858221769
2070319.7730690446
-993708.7526228870
-494036.9146483862
26164283.2112379037
-42784.4440137829
449661099.0439929366
1397992.8742202560
1442820.2748308049
-541222.9287447555
28310079.7285898440
32127.3797426961
755602899.2326062918
3335371.3051461079
1834275.5561172916
1428489.2195411630
442506803.7480114102
213380.6261242921
915834699.2790429592
-4171424.5976070100
-572473.2094116254
18779101.1677137241
1121342155.7351520061
1727027676.0597615242
-108165.4442947242
442367.3918760361
-64334.0771285383
26955955.6318241470
31489.5717384223
510801106.0616450906
-1768808.1407298986
-21357356.9037150107
15756065.0166972186
7900742705.7611198425
1021965486.3840718269
830945448.5448155403
311879676.0119786859
-31709822.4288732819
-23461909.2268165573
617146665.8441593647
-1404755.7501363966
8572693951.8943166733
1644995.2010361543
-230607.7036026022
1105017.1786886989
35699520.2235715613
-11759.7312437023
559282261.5286896229
384964320.6706437469
4529797.5861456208
-30490148.3571169004
506902828.8812375069
-2139256.9084386542
8921508356.6157493591
11497520.6156387478
5698132.8310755566
-11638829.8384897765
1339891552.5667231083
-205923.0355774348
1313953761.3658225536
16535227.0360710379
1140005.3501432494
9652779.0710767768
386716337.1177430153
607308417.6538490057
-15909372.6982265115
7266450.5623563016
-14452997.8156660777
454993725.0909365416
192697270.6878058910
385406373.1486572027
-4200735.9208580228
-164702.1498323966
-15662915.5994013269
420343987.4911430478
46380386.0799216777
135599461.6830553710
0.5977130600
0.9221966500
0.2231514600
677510337.3811765909
0.8096523300
265501230.7468296885
12555011.0861257203
-1246806.2043760419
-18007433.8028412983
3241530870.3102126122
1402827.4650603905
1064833959.9250077009
-9269056.5001857262
-1936968.4166176210
3028047.2705814736
175096673.6700851321
179703825.7459009886
1336286.9192287284
-947203.7883259667
23285724.5827038437
413084411.4428105950
139630389.8087852001
145752.7058882850
-187492.7811724512
0.5687772200
0.1856726600
0.0362236800
22925702.0802793577
0.6357854600
267185224.8818981349
-21060234.4981417134
162716.5764134666
-7625494.3007199280
324105816.3361729383
25886388.4975170791
523322328.3656784296
8912327.7464624159
-5481128.2241003560
4158069.0618581329
1231649396.9379162788
585844.5490860206
1202588944.6167304516
-17817992.4322389439
-7420302.5908565065
-17095680.3211964816
1379709349.8397939205
9216015.9198343195
203210706.2501946092
-1743363.3917968643
-18395768.9768431000
-27331556.9483766705
877438498.4250315428
-5589.7169470961
205511752.4111622870
-8564626.4197875764
-33100925.0254212916
-39111476.7102698982
670566646.7382092476
150271455.9766110480
8626043.0124409981
33582792.5459525362
36087194.0433758721
785851793.9458857775
16350237.7122761775
-2308720.5308697969
-16390586.8060100265
-651838.6016057482
1174686500.5026545525
-79897.4750687948
215578224.8101876378
0.2668015000
0.9100832700
0.8608476900
365050913.8658695817
0.6968504200
39542751.6413539276
-30499961.4468614012
-17751243.3847291172
7459944.6669803476
2065832435.7326221466
-604543.7712161484
1131307388.8242504597
-16096277.9009263869
113516819.9764844924
-124262555.0254480094
-3630755.8466665726
1757212342.6762628555
6509991656.9399433136
16700251.7088605538
-1237235.3073999686
-16124181.9339890424
8541563437.4948139191
393156225.5783020258
785708795.2180629969
36282179.4294687882
-9539682.8215239532
9342329.6430932842
1162305787.9615340233
-392323.9692073927
1609576451.7516055107
-17039491.5434890687
3691800.9659788120
5494690.7813293906
2309448824.6236624718
121155967.1069201976
878814447.4922562838
2031871.2779339168
-7940962.3807217339
-11878817.7800714821
1754064457.2593743801
483022405.4437522888
4360538545.6987514496
-14739448.8035677597
5873718.5835182685
19401513.2969374992
13355042160.9142150879
327868249.8560535908
653724901.6012299061
-2929290.4017623635
-6308599.1079448853
-498318.7598664196
547837669.5309460163
20500222.8021309413
289243093.5708482862
2630222.9600122063
55945058.8429894149
8786496.1692080740
604178325.4755573273
355406565.5964754820
235745251.5979925394
-108201.6907349639
84642715.7759474367
6358265.4889941001
1131665154.9906327724
1131451.0600301821
816752695.2097061872
-1220163.8612616116
-2953066.9899584982
-1090662.3610439883
6267583090.8351898193
68069.4064902323
602442565.1076911688
-1599000.5159984201
-60173378.5295661911
-12040821.2623585295
6617192819.8869438171
1577215.0598755325
225681550.2103314996
-206475.6360648688
3810147.1508710021
5984181.4240491726
1155650827.9510655403
236902291.1068787277
-27402.1132577110
724159.9465108054
24230.8341840804
-722.2010577686
-50421.4965214412
18958640.6371579655
3977292.9160396084
957714.5193833613
-2966784.9136560508
-1536668.0488909890
580515416.2783811092
154408762.7795980275
-350871.1339913198
2260289.7543619731
-5147516.6322442554
-17288100.0714127012
1339249433.5315108299
-279292.9053221552
285045342.8632934690
5973015.9735721536
2268463.7216541739
-39323311.2824633792
3497507729.9794154167
234833.0171071055
298111664.3131987453
1549422.5948297414
-5124911.6558252070
3603081.3730499223
1260380505.3385126591
85547769.7237749845
397174.1795078620
-1914163.7416263397
3555399.5359879239
-847244.6682383481
457837833.6608337164
290997306.2837009430
1565210.6837402182
1594047.3228936668
-5043505.3724606428
642969.9058303266
1064874182.2130204439
236293416.9340106547
-966613.6902770885
844020.4529979159
4781974.0722148037
3038912.0351113728
1664423503.1974418163
288322918.4265437126
-1271431.6954877486
206161.0014233988
-152836.7000779455
986100.7941604815
519835405.4669302702
116017725.8286337256
596582.7642865458
2225471.5733629498
-1610352.2654842779
-19159413.8242938370
2155994772.4263234138
-270422.5582910206
260800346.3211598098
-512346.3993408481
149498.9887916035
-3580.4510756111
-81324.8529718536
26165551.7097334787
1700797.2751202157
-322383.3571090107
-632117.0518622973
294614.2387191167
190591.4865403022
14706021.8403020911
7356275.6025446197
2199024.3905350887
-8514398.4969970752
1433006.1030299913
927281437.9832134247
175618770.9249112606
-1330017.0007513445
-874089.0806093762
-60798.6366686207
5979270.2183014266
935510040.2811655998
-1075287.0931047301
186430209.8943181932
7328264.9578793049
14758923.3186851367
1256084.7406787286
247421002.4675273299
803013139.5630670786
348077610.3193561435
17186607.0011538044
-2972998.0026884843
4223130.5606028568
332324347.1564446092
1377916.6046485070
2286942224.6376914978
-13687445.2022918928
1836482.2000239091
-6736437.0054331282
555933045.6566433907
374168897.6127047539
-15432269.6141397096
118260.7874464141
-2875044.5349393291
490662891.7855963707
261194889.9622769058
833881.4212639780
-486349.5538766923
0.4787793600
0.5103720700
0.0180065500
564168524.8732453585
0.5987152700
419866164.9390513301
-1369972.6309896430
12750.5787017479
29670.0118169063
-3470058.2195311231
620872.0229419592
1215723982.6807281971
374847.1463480443
216092214.1555705965
-524601.2518600533
70536214.8128238916
-2732269.3353286153
983654549.3300541639
159199.0646080794
677406078.5758494139
-2371571.1085780477
-81194562.7924539000
-2450969.3373191725
3783896955.7424044609
1053678.0999122814
597045770.7455708981
1763198.7010498524
-1287444.0167732318
13792477.7602920905
4774727889.0884914398
168054.8352422742
324714878.6527869105
-516822.7979563751
-2508496.8385901283
7151899.9830422234
4430796535.9422388077
1257047.5361692028
68678136.2130404264
-1821302.7255672256
-5708760.0955838030
-2153700.9220460532
5873210722.2899818420
-184319.0333796628
868450413.4496170282
-2845304.5328526599
67749897.8417353481
13298701.3444513958
971538914.4627805948
1751513278.7616729736
501812400.7509144545
-18070719.2395819724
955968.4484756459
-5366950.3252806077
392239999.9554470181
519435914.2341131568
310228.3801326521
-86815072.5987471342
-3365789.9630439184
4217517456.6539287567
227330.3656366521
287834043.2011805773
-9800551.7644996680
-2004244.5272479018
-4111680.2642012588
196577373.4595814049
137133359.2069572210
1732228.2454403273
3078344.3592995820
-9374329.9923475198
240020876.1325441003
125440.5873820222
1292975305.8514151573
0.1250829800
0.8447783800
0.8104044800
582004049.1883566380
0.3923895100
242963632.9153485596
20347541.9992973246
34169332.7820230499
-27798324.9656350762
2488175702.3511300087
1143495.0903137636
2044752975.7300150394
-16210304.2114846278
4966551.9368676469
36528263.4233646765
5564404190.3416604996
60609966.7949426472
1172114250.8156812191
13773780.2923183069
-24191822.4203807339
5690956.0178132523
1931659441.5388679504
187265.6798503677
473589597.4552249908
3200675.0437175399
55144003.7909100875
-17138876.0302364081
873299315.4376343489
1384587122.9059674740
135263612.1045382917
-686817.1267484556
12242312.4479751587
10240683.2061122414
322369877.7341491580
393399358.2851196527
229406084.7389421761
37470407.6944069788
-83491030.9074786752
77293884.2390618324
-5686879.9380355477
2691022511.8978791237
3041727041.9150996208
-9165982.9000352845
1401864.0034201767
12075799.0871551521
93138001.9476203620
163916068.0909406543
-1999925.4543283335
-7710936.1378322206
-10423664.2283155322
4369800121.7855052948
245045057.2274478376
1169218579.1716823578
-14579806.1944107004
7550172.3982137386
26274028.4326914996
1668083038.7420504093
1218683669.5323183537
-17991200.0225234516
-3844308.8031697483
1708857.4647880297
986771888.3731714487
1701786199.6706900597
-5394871.0164207742
-18260613.3108701557
-31696275.6254827082
7241512217.9224720001
133797718.0728227347
65110313.6292991936
-28638360.2088768817
2139767.8968479712
-22688783.4674594775
480959666.1396850944
482980435.1781380773
-503688.9556892542
-4393329.6335068205
17061744.1166448593
680708857.0353291035
-3579.6528201859
86208442.8940092027
-4626833.3782475227
-25364787.6559924930
-7917495.7174554523
1262877552.7019910812
168387.7697890127
672130480.6173853874
4080175.4416443435
9892698.9618810136
-1132499.8635258451
885991119.1230270863
535125.2002056802
517087755.1754061580
13698032.1236092858
-21621820.8518478684
17478520.9275368042
2436207150.1117043495
2166984.0033197431
940948637.8453317881
23339678.3389483504
-635308.3045260557
6590627.7593169063
2742646732.1547040939
61162363.6960855871
540452910.5528084040
-1142497.1520807934
-1700037.3383545121
-9021834.4518763423
160775857.6394993365
199988163.3922226131
-6090236.4730196800
35847455.2990045026
-19207357.8985320628
3250113383.5216245651
265054356.7997481227
249114853.5200439990
-1369884.0515896105
-632584.7625256537
24561220.8565268368
248580884.5351354182
214626373.5913510919
13062541.5220550206
13967163.4971113373
-21236768.2901212946
1256260483.1871242523
962667.7874517767
763978754.1955730915
-5108940.6060431786
-1156519.0683186208
4590474.1834689556
282824650.0551596284
390793064.3304949999
-33894951.9836673960
7917937.1152742822
-15616322.0413060319
1173915964.2061836720
409077603.4569741488
11825187772.6081867218
-25305180.8436916620
-1797152.6115493816
-22926749.4958576970
1918973550.3432755470
295154434.5205112696
7162595002.7077445984
5600736.2534615798
4009045.4072730062
-16986152.6766884252
2778915940.2832961082
604345047.9943937063
-7960144.5543242693
-19604846.3800097257
13475365.4120418727
1223500322.4970965385
213153040.1330280900
4036526981.5019316673
0.1626711100
0.3513603200
0.0951068800
236147791.6892791688
0.7901947200
504438457.2347474098
2743584.4671878321
1268391.3572615120
532138.4715819532
41528933.2497202531
17966.3772177244
916578829.8598762751
194049693.1596398354
-4628064.6772954930
-55797998.5753413513
1582783742.0344278812
-276757.9390782056
3631433490.0020194054
-176700.0714974093
45122339.0773942471
-2030991.6858366409
812830284.0364193916
-196452.8514418223
489093921.7243080139
12882444.3406502903
-5791446.2519737184
-8068569.6614436200
350503042.3581492901
596459.5885916813
310521017.5159308314
-26004797.2486928701
1400197.6039456073
-14704367.9832752235
976126891.6895173788
185511122.8592171371
3769242107.5823440552
52039285.5224808007
34043546.3487470374
16416553.7588811573
2551783812.2526350021
313779.6627407077
1221709045.1282567978
1650219.8801324484
2059538.0102727879
8252309.8515258403
443625007.0134472847
500152681.0593047738
-2566747.4621033687
-88836.6855155814
16562211.9241871815
325557214.1939711571
249419319.2041155994
-7534661.5333599551
2443364.2656352469
-1547575.7603009399
551872688.5781469345
402890449.6201280355
3604054.3450570279
-657554.0561238300
6631891.3428114010
419432508.3755034208
87191.8689650403
1109763778.8495635986
0.0539747000
0.6383329000
0.8074656200
625269291.8343533278
0.5804395600
611885476.4021540880
-1572176.4418399269
-1315392.3189483276
-438652.9163275569
31859294.7492464967
14355.5967256459
541065466.3532660007
590088684.2870359421
2886708.7601702972
-38461206.8232787848
946444380.3837416172
-272399.8594030499
15360733236.5786724091
11631334.0277130902
-16179548.9204062242
-12873990.8023790717
990135688.9736895561
220865.6534826525
6110279336.3681211472
-293536481.6055417657
976459.9086497992
-17715786.7348151542
1114935426.6341028214
1616051.4287090835
9670643708.2590503693
0.8614031700
0.6082343100
0.0398144400
399984474.2770857811
0.8753466400
2763231190.5059909821
2282603.5304888543
-3038313.4694958967
28199601.6286482997
959272043.6856285334
372865279.8010778427
488465471.1595477462
-369388241.6707195640
27214313.0332342386
31563788.6303654015
2026065756.0431454182
1880843.8203841355
13113554912.8909740448
8650827.1883598119
5477897.1726106750
27246940.1529537328
1472579743.9662833214
509371490.8624765277
-7943690.1014121789
13031846.1025998332
-10222011.2437691055
193215190.5928919911
110200481.8840374947
2244653004.1323151588
18166736.8652706109
-2059141.1279796034
9019984.6390355732
1034695002.0808575153
23016364.6066292673
188653033.4872334599
-10474661.4336227402
-3396565.8114386923
-4285366.9891772233
59080025.5796288550
255966330.5603960752
10612547.1256291233
-942444.2400793430
-16635973.6660446525
325879433.8349876404
1435364.9332919971
571420871.4633425474
9179090.2708930429
1046518.2217205493
20324285.8122859374
261384862.2193260193
430194098.6979521513
20291201.5825767107
-1345497.7894379387
4561288.5424300637
443072417.6309471726
514782321.0355653167
19787504.9103980437
35768847.4487020373
-5162990.5557325138
53105317.4395517558
761080926.0428904295
-17302781.2745917216
-36266980.9114213139
7489701.9845897360
89647268.2299993932
792552161.6594725847
-2034110.6752217226
23961178.3173497058
307309.8260347811
14471570.8108862452
13639643.0730147585
1315394774.6554045677
-2039241.4668193113
-25152174.3613572828
6326052.7297007646
1346554290.0507750511
195945.2899666858
167447573.6951629221
29315.6731990122
35159505.2188644633
1633124.5362762797
113818035.7554221004
-17016.0671592369
22712528.5986609124
0.5492314700
0.0127779700
0.5514462100
18616601.5156607293
0.9813561300
119390707.6468823999
16896589.2191075869
-187411.6825950995
-5831006.0948259020
1491190059.6358370781
985595162.4319170713
-27542599.0859270804
-41019015.0003461167
34026166.1284154207
1414769170.9809932709
4708555108.4591054916
8676495427.5362358093
11890612.1103171781
-4917735.9009535024
17724511.6010914817
997090888.8991792202
951792143.5606334209
10864489930.5404205322
18045260.1940693595
4867738.3258873988
16137108.9619649742
1015093793.2716213465
958549983.0314768553
4264517.3928182069
-52770618.8058052436
-48827062.1428121105
9056193234.4546356201
920131291.3316212893
1221388050.9473216534
2775209.2442532498
-21664118.3109979890
-3028470.0964430491
4384913764.9806003571
34291112.1626210213
396130526.8768163323
1937671.9287319530
52978812.3831638470
1250356.0987551981
584653197.9445655346
376235986.9452792406
241705859.1142829955
10338.7378887381
-78641015.5588592589
2723976.7770285462
6948644424.9306211472
459009.8285039661
315776599.1124133468
325827.0906833604
67323411.7430027723
-4984464.6753270077
874401523.7844724655
1302140.1209610160
785534002.6661772728
-1000302.0706672859
-50380440.5097323433
11458812.5328617543
6747237203.2407226562
806901.9960862913
555469929.9148253202
-1177518.7806741737
2942947.7338138940
-10497714.5262086652
3113042868.4621882439
676184.0521580908
388288006.5028283000
122109.4647335380
-7394626.8024597876
16322035.6210855246
6756887942.0849714279
-210571.7892725510
793451752.4965804815
272672.3216166262
42049672.1798435673
-5442586.9851579787
714621042.0695810318
69969.8648355528
915368803.5757703781
76169.6749702021
-9326605.8574034050
8055728.1848007608
2156879778.4898152351
309839.3053246748
490478134.8720687628
1705824.0036683406
-10823327.1699617542
-5044472.9986406444
1668741866.9399371147
1905984.2411940277
124073149.5103412122
10803846.2987593580
31970553.8380328827
-151499.7125756628
482441186.5589118600
935764201.3496395350
270889892.4123117328
-1697576.3322088183
-58895909.3716791868
-932038.5502618590
3825512228.0502519608
310803.3768186882
727983912.6434874535
-40180.1422299096
-536808.2412583497
-2.6555760228
8668.1061996106
2653.0232935397
0.8857099800
0.6586629600
0.4301183600
2472751494.3271269798
0.3833840100
287769952.2830435038
-63295.3965407152
144339.6824226322
0.9485370941
1119.2890324832
833.1709710500
941323.1716352339
259686.9374480495
179.7485709385
8553.9052981411
1741.8875290324
9257797.1074819528
13324896.2186776828
-32233918.6530083865
878737836.7219247818
72065.4603442366
665684760.3154404163
17251790.6778858639
12346042.5091542657
-6367088.3814057447
1641348785.5168569088
-742175.3059894724
1718937328.7404263020
1562668.4426466948
18108.3342626180
-1062565.6364412741
-65635203.6762232631
7829135.5913734799
5668986059.4762706757
813319.4017364021
153128774.8604263663
838401.8309773677
-23962732.9396436326
-2327932.1619975129
1931398206.0323321819
-753313.7135756288
189209293.9675555825
873751.2146561065
-56947926.2622043863
6451620.3698749747
4222093319.5510373116
932754.2641743978
349662531.7011817694
2127003.0531311962
74049709.9659987986
-1654583.6638398580
1349567317.5368275642
1067853.4738518707
704347099.8099625111
-2599371.3884709636
-65673018.3510067537
15431032.8567422498
5921602602.2097988129
-194854.7081079737
758774314.7690829039
362934.3119846840
64864658.6485367268
4669812.3775469121
1081144561.9075951576
837534.3622495815
782141353.6444383860
43530215.6879787669
-4816603.6733703241
-19557319.5738649070
750734393.4432702065
-1329884.5617152508
1444483814.9360325336
9993711.8956308085
8331014.3719288968
10322963.7606268916
502463865.7840446234
106065.1816549669
550655129.6491574049
-18596242.0291152187
-1381675.8080801994
14341085.0605209637
204363990.6285216212
382111265.7739354968
5680294.4712626394
-752839.7604177068
1291744.8253436740
74066207.7596145719
232786476.3533279300
4269816.3367491420
1839304.1619521743
1311562.0844365191
975799191.0289856195
1762620350.3296537399
-27628835.9099403955
-3421071.9517757893
-8511560.0845945030
489425461.0532758236
106418496.0006701946
3990459645.8512806892
1326827.0342049806
81761633.5134432316
581419.9218560932
1375527669.4705805779
1011685.6098333553
619569909.1261267662
27845356.4985018596
5216363.4385506315
-6119019.8402134869
173689425.7113063633
-1072098.0732016442
1358753414.0784170628
-38277029.0780773759
-56289567.5003962591
-44272287.2004700527
2808446323.7683658600
904647.4233352153
2151044575.1829280853
31900130.2533122972
-2135176.3171001724
11546275.7347551137
2046852847.6690058708
266926210.9521052241
1848242453.8327591419
31648566.3360816389
-2510761.2555517997
4621434.4621914830
341145089.9647301435
115169514.7442232668
1811703750.5625469685
11218508.8741682004
6762550.7645290019
-27363417.3604808785
642921184.0587431192
63540213.3443113938
0.8026066700
0.9215679700
0.6624187500
583816945.5817588568
0.8338005600
489464742.3806083798
24740987.5820426196
10404824.8981875014
23447933.5877730288
2195773701.6254372597
298077.4325948666
1446832866.6929728985
-6653652.1220270284
-20140860.7524458878
-15904148.2847742904
1804839114.4065487385
-392207.6701145658
627430317.4548367262
6952048.0214504264
-2254236.8449832629
1626447.9279947202
989090767.5501904488
623642097.0727199316
9462161.9274963010
-7053555.9956638524
16265688.1999250129
507660660.8859597445
372978855.3945288062
0.1346997000
0.1406008100
0.6518643500
569253123.4847627878
0.0621687800
79750798.7532179803
5508814.7910444690
-218637.3068950857
17191366.6850408949
600116850.8920122385
37112236.0770974383
2176894002.2790999413
1581624.2272508030
27875555.9269689359
-15598251.2894154917
943589953.2023487091
195205.3496426167
1248495957.7416706085
-12017875.7867566794
284983.8634985699
-8696030.3897078242
517126881.5098637938
345223467.3045603633
13218356.7963828575
-1684878.2580068626
-39169472.0206225887
15116821378.3242816925
1231938643.7157118320
597703274.5264642239
4736344.7200973611
-5433265.1856736001
-42366959.1173638776
12257274274.9733886719
38223576.7145877331
722369309.1300388575
1507714.4796165712
-4010472.3609864432
-1530739.8506654247
1356044664.4165744781
794590345.2451578379
6249419.8670650171
-52240779.6205783710
31822125.3112991080
408029964.9646483660
-47528.3844427643
441460551.9780617952
-8269786.9797862004
-2750838.2331328657
8901337.9186751917
116034196.7132122368
155681611.7166644931
0.9476488700
0.0218173700
0.6855002900
333214692.2793458700
0.6606538900
2391241701.0832400322
2271938.7346759834
52997138.1921641454
7181123.6936824620
1373392269.8132259846
1371471.8362533557
580299416.1888624430
0.3401932200
0.8639104600
0.4533084300
458974989.9232223630
0.2030792600
861967226.1781328917
-188750102.6177691221
-78256191.2883343548
45459672.3669216186
1837568205.7752623558
57887.3646484701
8667773699.6938533783
-16791933.7155953422
-10308114.9944448154
7697444.4966709092
613840719.8570288420
140938280.9058751166
821128611.8819473982
-9396329.7743923664
-10205516.0605140124
18341435.4249695204
222673499.3283354342
-998729.7790212895
1197847024.1601591110
0.9088033500
0.4617331700
0.9275719300
269700023.3281226754
0.2464224100
761454145.7982698679
-9371454.6215767488
7720669.8225255804
11531353.4005495720
2364411195.2635192871
594507.2605780638
1614014787.8463418484
14414281.1233608834
-3185930.4012109535
-2975234.5799860619
286237382.1542924047
362985806.5359271765
0.8834438800
0.7568394100
0.3971154300
538156928.1647894382
0.4044269000
276531317.6173394322
-601353909.3527829647
-36312171.4410451055
35551024.6526015848
1776890608.5279657841
791092.7192410233
17945973524.2200660706
923002.8800585496
-7763707.7206141045
1380782.8921815816
20159990292.8706092834
570895517.9139167070
624842129.0562115908
-15095298.6727955639
-7628776.6283262530
10862484.7258863971
16626638447.0649738312
1185133612.6674447060
542049532.8296017647
-2534704.7346627940
1142885.3243320908
-17794735.9153916612
605491942.2662094831
1358863.6984432777
3185042125.8074998856
4430155.3879027134
-2019706.7491827572
14057668.5074001104
76941721.6935703307
174160291.6754948199
0.3891056100
0.5560701700
0.4347191200
318018531.2546262145
0.3896612200
2937469114.7710614204
1841703.3788389140
-2786861.7951296065
-863904.5319741332
70899365.6667403132
160373612.9068978429
-5343922.5334252613
-3559848.8004217143
12376259.8307874873
745782573.2718337774
103108.5610878438
5422812596.0958824158
-4700201.3942751605
-4158162.8777023847
-9205446.7414093576
210352168.0453014374
307874695.4148595333
-7583596.7373513319
1216971.6677263496
27135376.2813643478
735259064.3486692905
1457743897.9801197052
14796581.6176698562
-428195.8076701214
20434701.5506444015
827716930.3227421045
1359170590.4380028248
-125134.9314974902
-2394424.7377751828
-24539833.1906269528
1622744481.7730004787
308520157.0562597513
8449917608.3516321182
-20677025.2190563381
-489923.0686544470
3671392.7780989395
952456065.1035879850
729036167.7578359842
-10093948.3720861152
-33823506.3462293968
19670653.0186281167
2040732702.2318029404
161604.8681617989
2017179403.9620077610
595814.7224703698
3663573.9704264603
3463149.5544419196
481127209.7105621696
251321.6009924534
979670846.5754818916
0.7380666200
0.0797735300
0.4528009500
232103786.5631468296
0.3646353400
322973411.6392088532
5947625.6234239684
5400913.3338564523
-2582353.2485493273
50067086.0445988998
42116478.9957954660
1956728718.4540340900
0.5444781900
0.0888657600
0.6810902400
415569002.4566335082
0.8956074700
507100780.6039137244
-10477074.6659905184
7564632.9638596112
19091205.9181654342
-29278582.5117067248
579318579.4674671888
-4712227.2253451021
1024476.3224409226
10808886.0717443768
275061262.2107025385
440715673.6160927415
-8594056.0033352859
-2199194.0483696065
-21242042.1789843105
324679530.2237965465
276560060.8375002146
4923053.3849115595
27248207.5293110162
-1731867.9195769529
-25639860.0072841570
562546222.4671961069
-6116228.8257342856
-27346975.1377152354
5738184.6515792236
142910563.8016336262
613990470.8438354731
-21337124.6981463172
8992007.9464596771
-4769485.6155162174
31086995.4926517718
62270475.9092243388
170360633.5359093547
891446.0616351321
2371179.6464451416
2048959.4254192172
132438517.1088739485
-20644.5685097395
120828756.0003225207
-24840145.7932993919
-41144806.1844959110
81624066.0263825059
1707226806.6642255783
1342.8281278665
619135033.7231148481
36564568.9286442026
-42796934.2233856022
-121367.0299491114
12927663759.2307968140
1273936564.4689378738
1230952695.7986476421
-8342998.0151278647
8630780.4407758284
12339444.7521382049
3618265795.2830557823
70832512.2715071142
216955982.1439984739
-3703180.2115367390
62403158.8841279820
-44968045.9883871228
702776954.3866592646
2600828465.6907191277
41743251.2573543340
-8071697.6212672489
24397198.3249707446
-2386530.5435635778
260963373.7800666988
452193369.1910597682
488737326.9257286191
7210860.2832201496
80181346.6078180522
-10502027.5701660812
1158417697.3500127792
323253036.1909166574
274130730.6801326275
171118.9735119437
-64661277.0613019988
14107865.9462049454
5439074569.8375787735
1503861.7598254120
244391568.6378718913
262567.6340468346
-83533360.3823326975
16004431.0464139227
6324807163.7401294708
-234173.7429809048
305360091.3127964735
-2555277.6917290245
-25402117.2793209553
21456061.4534738697
3761245030.2628173828
-176439.5162027832
487342972.0851787925
650485.6668099768
-47752219.8959211558
8211872.2754939608
2799250512.8171548843
-180069.8158714114
310717101.4739264846
-1256663.5003643765
-25975923.2552833147
-1058329.9445823391
3058497692.0872507095
-57180.8933164481
283361642.5097555518
2861345.9125149157
60900267.9675954431
-5070322.7337776907
1182558163.3032784462
886378.0657869293
777573041.7691702843
25522336.0440097414
16049455.9411908686
-11276740.3126419876
1022098896.6862499714
90539872.9292397797
3350421108.1003403664
-14699758.4116728976
25128905.1025661044
6875172.4360020300
1029868642.7458912134
100965301.9200120270
1327192069.3708763123
-3477187.3199048396
642556.8971155476
3042649.6977511211
134283703.8473466933
4872.1614475949
227128777.3311567307
4327588.3379686549
-47628984.3984596506
-14248928.4469799157
2641097713.2631182671
344318.3009408761
687764037.5269272327
76410.4167735612
-341017.9973711982
-36.6321104886
17224.4358187315
4605.6234542672
-28766579.1329699568
-21606401.1527122222
-9442133.5221331902
3066864571.7204470634
-76129.1634000262
597428695.8618123531
-129999.6273448455
-655994.0626227958
-46.3046669743
4112.1412499852
4052.0783048173
0.1911023300
0.0962557000
0.2349435300
1810900516.6904110909
0.0958030800
224263047.6536194980
1459670.1206179715
47449065.0330823213
2339626.6456013708
691172491.9501087666
310167.7016488390
1046795603.9155128002
37067368.3015803844
-14230881.1816650536
-28207814.0426518954
1045879234.4950613976
-1025576.1813683184
2254033194.5819559097
946037.5371107953
587966.6724162318
17.1685851473
17537.8779241173
6756.8219962435
54282.3572148864
-2069271.7114703683
-106.1013311502
6230.8852123160
4443.3773249285
-9260775.5242013987
-19570673.1951035634
35317934.4077554196
1246951673.6513073444
-487042.1670050792
342052138.3436575532
1494784.9235795420
3311712.8962024138
6940905.8096553152
632387200.0687350035
957587.3550154320
462859020.2674888372
0.0478860300
0.1658193300
0.9378311000
245438214.0675677359
0.4096747000
363084839.0075968504
0.0960187900
0.4840906500
0.3422616500
247109173.7007958591
0.0432522100
531909168.4601479173
0.5251782300
0.9711978700
0.8152047500
1606707107.4871032238
0.1369915400
320335136.8679594994
3832706.8854370331
20944786.2981732860
-2314254.2217444568
3374777451.6394205093
36871.0835115536
661174367.0430217981
3336166.4656246630
-470888.3420552639
-2279910.4563641855
420397567.0689776540
373600319.6805576086
1008074.2094737721
-69112247.9053491205
-10298471.7238103282
4914253309.4617347717
1568584.9959878919
526675073.7634623647
-2120455.4732573121
-77946833.5947467685
8851515.4423181806
3930114074.8035092354
1117704.8223814610
390199873.0320289731
834186.0251304508
-68949796.7804447562
3109901.6657147589
4255389785.2658901215
1680792.5936340769
697120944.9546984434
14367420.3794814479
-19476382.9790162742
7332741.5526208365
916849043.8382618427
25623617.9283271767
5300057925.7094058990
14579750.2783845142
19495762.3102019727
-8692779.2838533800
1085562230.7012999058
56130027.3439251855
547346240.6655694246
-39423949.6312935576
-78217190.6642434150
7761750.3727233382
523491958.5935487747
1539413.3564737572
2093770723.9804246426
-12372602.8225261103
10108954.7802442294
-17328067.2124890424
2562196384.7628746033
323655.2529464354
916363589.2882879972
24518357.1897445805
-21538992.0926746912
4778700.2887172885
5514090791.7455997467
47194.3262846743
1190352019.2272193432
0.8954036400
0.4139666500
0.8855215500
2063414640.7551000118
0.8154586400
407386918.4265415668
0.3629994800
0.6488041700
0.1719325300
2470319861.8216156960
0.0806852900
383957613.1074699759
0.0542412900
0.9237634700
0.1015476800
1109873347.9549131393
0.2259247200
413564808.4853421450
-26280449.9487273432
-32424521.3527009636
16214112.3989700358
391778849.6267394423
749746.3979573795
1182887164.6023571491
-29535644.1493311264
-8865555.2103302497
-1237304.8868759847
666053614.8671333790
61403643.9220584035
2613933339.7021780014
-462598.2834285736
-801351.8580226498
-11317857.9983557258
445881.4861471516
14101242.0795087442
1034434079.8326882124
881702030.8812949657
-45760156.8594979346
-732648.2690807445
-8300262.9997715708
570351420.5734142065
266360051.3415387571
4081104877.8358459473
-26652627.1744439304
781570.4008527383
-8568452.7141407095
4150337795.6800689697
344616564.3930476308
1011524661.4550476074
-12028790.1825051550
1160657.4595174333
-3627391.8457859387
5435670404.1067123413
96484828.3276960999
471230544.9930776954
3593305.9915605318
-18944936.5300384499
-2973326.8687357195
886107973.4234877825
271192.0575238520
395006321.8186851144
4725661.9569074214
-1335317.7730714337
-5170466.1439357502
548662570.8570663929
538305255.5666964054
12379010.1433704440
174029.4564579593
-9686461.2012932822
291723805.6958296895
387994535.6210215092
-10956489.3490437306
23429093.7925661132
10469027.0701946877
1076717306.4164175987
-34041.8702366467
1237738654.3097834587
17413198.2439235635
-865518.8933909510
-9403336.0791990273
121961401.8505555987
59317114.2438137904
1530572725.3922407627
405367.1047581790
-7629011.7123179929
-7316125.8500651699
765065626.7343460321
1030948.7691438349
3618365319.5361552238
39588819.0816458017
-118211.8322985685
-29617671.1851386465
1217685382.2894656658
755403602.9384261370
8243938804.8177795410
4773150.7570301099
92801.1028688381
-5246747.7392207989
402563469.3044816852
468698145.6233593822
-1285227.0584295816
-970671.6438561177
2448136.8537533935
3252529.2777982517
4088925.7662208308
284705073.6660135388
736414.4214019332
1392139146.9300630093
-26496596.9288661554
12262901.0746788681
-11961472.9075106364
868430342.9243056774
188771.7532695063
1058823660.2664772272
37904677.0421554521
-563769.2351932286
8435606.5970328934
942562134.3396403790
127327857.3642367423
4507334528.6136045456
-6178895.2340216190
1257453.0537139026
12984803.0384916458
121203287.8759906888
347016059.2889358401
27200957.9686113596
1591711.8608539931
-12805402.7420898639
277258533.3618353605
39699176.1068304032
2243680633.8468294144
-536372.5366700741
66923.6169449814
19906508.1602219120
247494377.5679269731
424521431.1837897897
-15170035.6321300566
731848.7402872459
-10858063.6265308987
233708582.1907344460
575946955.3705761433
0.2623375500
0.1660537200
0.3649698000
1684422729.6998596191
0.0436056600
714125058.7917394638
0.6853533100
0.4200112700
0.9946099400
429558718.1639536619
0.7538974600
382322238.8137084842
-14281212.3010365199
-11578666.6207781825
-26834640.7584376149
2463906784.3843450546
-129242.4241056754
1341466162.6756625175
5295405.1378210504
-155506.0385404258
-45299423.5895108432
10744762453.1899166107
781842042.4295991659
1566808668.5927033424
2397033.1502746339
49355285.9224652797
52876033.8884059340
2219830305.2761564255
-188759.7338286478
1959356966.9819731712
14620223.4312889818
-1892086.8092363924
-42957420.8837886527
680403018.0899865627
262908651.3400660455
781329705.3912498951
11367148.3937364351
6116969.0034547923
8384012.2856272710
6532820009.9622097015
256872342.4926055372
480758299.9864630699
8517063.4418543652
-10395396.9677475523
-11934598.3342437837
708527522.1796916723
56545293.0256126970
5740549423.3356513977
-425619.7153369336
-2860902.3823857168
124.1859843767
5690.1336590802
2253.2822619231
-24405502.8148265071
-19875748.7490719520
-4504743.2075951807
1369473844.4930825233
-433487.5587148474
1035646682.6024864912
0.1263075100
0.0611020700
0.5478077200
1546194097.9513711929
0.2186308200
212150911.9772315025
6361239.5973117612
18206414.8367270492
2230934.1460878537
1296995880.9025290012
-15533.2969647739
181032483.8312956393
-280390.9249856213
8479856.9782052431
18863361.1500578709
363174662.2093517780
102418632.7693064362
366248.9166659589
-8690364.9236941859
-19843148.6713246889
500388809.6112813950
94871278.2849143445
-1052247.8566553453
-1158335.6253920104
-2868069.8108656011
612708474.6950589418
-7003.4878785330
732848654.5870019197
0.9133336400
0.4335320400
0.2418113700
96465565.4175517559
0.4946341100
56949277.0576354042
3552353.8253585757
-4887008.7861983683
-11800282.1559240483
1054065626.8663283587
120967.6843445768
1001193092.9105497599
15602377.3952453509
-486996.7607126689
13804656.8964623418
501707312.9501317143
386467005.9913045764
16890056.5852423869
-1311338.4525977927
-19040055.6099773459
474991206.5112209916
14677125.3097394034
244359971.3672182858
0.3240523500
0.8880427200
0.2529952500
416407528.4978070855
0.0271423900
22237402.8911466002
16975050.2710119486
-37146349.5161196142
-27176279.4002008885
942321155.8231514692
21382.5592239956
566368176.7530409098
32098297.4547134042
1798840.9688764291
-21561626.2576255649
794188886.9198703766
865828.3457773698
2099975616.9765450954
3321720.7884826320
66381073.3166958243
2135729.9053394650
1445275833.4623310566
438407.9447574723
813612186.0124928951
51199783.0388478115
-2196923.7761805286
-18449406.6611027382
797091273.0588366985
1210697.0189698278
1752073013.6081945896
-471539.1654184189
-61368018.2880058140
6009168.8159492007
3244195407.1721887589
162314.3019812313
480230688.3708841801
357409.8600494502
-47322200.0065027922
-3742732.3815178340
3863082188.5267128944
1400882.9463220646
450699898.8097965717
769483.2785924375
-61743627.9759283364
2616511.4707285296
3070797512.0822410583
2249295.6315851868
437311524.3151053786
-22746938.7715446204
-30595919.1215331890
-12296613.7820631266
456895205.7253602147
238650936.3686583042
6834005961.8224067688
14719477.2065865062
2997028.5917369565
15264823.7412858997
406258133.7300758958
100265609.8527290821
719374715.7384507656
37690317.7362557352
-953436.0189535401
20341190.3680739179
1074808740.6523165703
1615316029.7520713806
-9784810.3117545247
143116.9211989971
6755.6841965000
416783128.6266261339
287908869.1383173466
715879.5116528573
-138634.9846233748
-5002037.8135311110
-27129791.4820174687
3830444.7066965871
-296810.3178012511
427753900.4152610898
4917943412.0185308456
-9395118.8211053815
7058922.2774076806
-27504146.8203176558
6163422526.1773900986
86472976.2285067290
1462191392.9168550968
-12102619.9802589379
11146279.5777210686
-3540906.5793517227
4466153347.7391071320
-178409.8788486526
284308572.8916097879
1425570.7531960618
3595784.2730223583
-1.5400232863
14496.6582023114
4110.9091472833
434598.9486334920
-2795092.4812180549
-97.7620378471
6460.0138054696
3213.3855131099
-14167.4513983580
1655053.5758481449
-38.7844634107
5395.3744746591
1413.4990402938
91684.8226866289
-664967.4977548101
-55.9177848226
2916.4232297067
1905.4080197152
-38670372.7785881385
-4914442.6679387325
29764559.5282528363
886937749.2333201170
1102342.0381652205
829380759.5810228586
-4334476.7657802179
-160829.7183587133
-4837753.6614088435
170696797.8132597208
2952.9023891094
263297605.7346018553
4190916.1764288372
-9399887.1023474745
5004918.7227107389
559602480.5688800812
-44316.3882634698
1177469040.0482814312
0.4568002300
0.0149140200
0.1369993500
160533982.4776737094
0.7214880700
787319536.1428283453
1117439.3686208797
7591479.2642056122
-4636644.0068853684
435198395.4628093243
567756.7990874406
1261769663.2050251961
-931056.8453032970
-136279.5525182509
-5883949.3126810584
-111070700.8607777655
54285643.8327562734
-4901388.9954574844
773674493.6766335964
11766125906.4157485962
0.0671810300
0.6785773300
0.4601138500
129018472.6481388956
0.5083499700
381964342.3455055952
13303542.2316870689
125091518.1965087354
-42464860.8282234296
677434574.7655713558
786586950.6022893190
-2934237448.4204988480
13796562.4351726882
-488434.9013319743
-4772441.4449948948
502595140.5088917017
468504049.0313386917
9978067.4701915327
-2717740.8188805329
6838807.2805230524
226007067.5154321790
273346874.6001930833
10877396.6275908034
-4000798.5159361558
13539448.7614423316
1291873700.4727311134
-816507.8421860273
758645916.4190915823
-19043808.9134473875
5041549.0859684180
-5897908.8997960761
2686050963.6617970467
-7772.7107841387
1063732830.5401598215
-982436.4770932373
-11206900.9115307033
170193.7290644678
136496091.6482326388
-244142.4629398578
979422449.9159715176
6772667.9959248304
-1948554.3468572788
35031264.1220205054
13349716263.3885688782
641656008.4202288389
97487264.8380157501
-4559059.5497509930
-5323621.8412779486
-18394542.9596113078
2645434985.0727357864
1300175.0491950791
926359487.7091526985
4739890.1964888796
-8914493.1400942709
-5497158.6214123648
4051480619.9609313011
58718.4032720049
915396700.1233896017
7465749.1902715638
-43101728.6953592151
982262.5829190830
1691363211.7248070240
307771021.5841280222
23681371.7322853208
0.8957854400
0.8765328100
0.1720638700
144041249.8642190099
0.9448170800
337743443.6850374937
24551622.3004565723
8186346.0676969206
-48561974.3511494547
7510730324.8225193024
299506740.8874118328
1156330339.1747357845
49507821.2794594616
45235971.8979340345
39442776.5867130905
-1311143651.5172164440
155711.7926160277
3118521801.7757592201
49104605.8125404343
-2242030.1444752873
20567391.4816431217
1104617420.5834791660
633323894.0121175051
3621334488.3427314758
-9330394.1997436155
2271498.9613181581
14632751.0328192264
1036290667.1429991722
122986.0265805123
284917944.9271422625
11435236.7302025948
2013883.2891873759
-12926150.7251414470
268940481.4838179350
238127864.5905940235
11648926.9126787335
2004182.0755703435
-6636056.2738509485
315241928.6004903913
150032050.2240941823
22253097.7261573933
-19734723.8741819076
-16500103.9305026326
3742084387.3679690361
1331552.0565380084
1855017542.9390468597
-35039194.5997978225
13526369.3214539401
13561466.5320735313
2465856208.7498927116
489217.0946093203
993257021.6535723209
-4661906.3232324636
1728245.6247924953
14331651.8100161441
2350265778.3201770782
62729858.9364785999
322234750.3178662062
-12418327.3539276551
910640.3502497911
-10210591.1211367417
1151980659.7457501888
1507792749.1910207272
-16502418.0223298576
-11646070.6945995577
-22124805.9827390499
1122492594.3915393353
25688.2627834289
678299990.1755619049
0.3776856600
0.4301554300
0.0980818700
233621306.7068764865
0.5318853100
66933088.9644889534
14688938.5122805797
1929666.5713123456
-12208021.0467905551
2367790397.5965056419
557841.3713222179
1644289665.1128094196
0.7290681500
0.4408555200
0.3542575300
1787985807.5469410419
0.0690259500
441467787.3452921510
0.1630690300
0.2811265300
0.4088847100
1315984715.4782660007
0.6631678600
267026516.3643168807
-7660264.8346571783
-6322482.3479957543
-27121697.4715371504
2099178103.4307677746
832452.7558873363
460950998.8343613744
-3741883.6860932852
10079592.0792212132
23198167.1864041425
820849673.4879947901
37417.2992230375
135070045.9254463911
-1085565.2021582248
6385403.9279925721
24333682.1903654821
378580087.8191182613
58077151.0776368752
2046899.5448963633
-6394557.4236550694
-25605606.1029263213
280912691.4983332753
138950033.7942241728
8593856.1254566871
-8575429.9623938594
16997511.7968037203
1567395251.1157779694
82688.9621473696
273423701.2531768084
-612963.0349420956
162196.2327292865
-2934152.8140912061
454034031.0134582520
12608127.4390185848
-94957005.0603238344
0.8219558400
0.7560584800
0.7081825500
167145487.3203979433
0.6452324800
39076147.6578016505
18241859.3911885470
980303.7382889370
3075377.4040639456
-82493457.1908700317
4676.8487809579
1676618664.5745518208
-33163289.8001136705
-19040310.5634510331
6370233.6041644262
631094604.3881927729
-885022.3739502388
523155738.8781416416
-47498182.7304842770
-32462575.3420134746
15118901.1884059329
448611850.9512320757
-1563199.6337150468
2398897778.5007038116
-15901433.0304696392
-4320721.8949286742
-11673526.0058652945
446999349.6824670434
256907291.8852987885
3128832411.9425354004
8314155.9143940294
-27449231.1679881290
-17941004.4327374473
3654077252.6721601486
-574348.6534800192
1376269525.1313371658
16735497.3381088860
7652135.3521113144
-2125653.4290887439
4315701145.1993570328
-666572.0122293716
949962340.8848137856
13773158.8727867715
-11952871.8736260310
18258551.3822821714
2086557264.7134997845
849152208.4594796896
288717766.0950080752
-16191800.9209460281
-18759755.0373526402
-44487126.0631536171
3993816860.3744950294
2010116257.0508484840
-37608584.7313178033
-81888265.2207219750
29698511.8022864498
2159296604.8714122772
761891.4302146793
1349079108.2606289387
-3821950.0106626432
-1101053.8559606825
-9176452.9029578604
276145763.9192669988
382098250.6346286535
1604391.2879172477
-1391845.2415614158
-12774342.7417837754
470526649.9422276020
589679856.8826402426
187568.0415053465
-53525.4750980805
10794802.3356041778
30559852.5379267894
-4016353.8154652463
154302.6356111634
396007594.6997641921
4297757708.1473102570
0.2018392200
0.6873319300
0.8279379900
1296746662.8787343502
0.7515286700
520896186.5389328599
-16197622.6045067143
283399.1918105123
7117048.4563045073
901311321.1295610666
1054038686.0800706148
5404147.2860529544
-17903003.7101719230
24347241.5582730547
2375902378.5955886841
788381955.0598814487
15547562732.6361045837
27429622.2052413560
-936800.9826522863
-19704198.4538605660
1551102677.4158284664
707762.4976109940
1189053412.8129062653
30711059.3610681668
-100020462.2535788566
35883113.5754516870
15499808190.9967002869
900896577.8462176323
413959905.7959516048
0.5275437100
0.7699846700
0.0922266800
400613684.5897207856
0.5979226600
1171746548.3047182560
2648659.3203475336
-3667483.1604007627
-12394702.3633168116
487896156.6015564203
893334.0873056367
1254738977.7060995102
-11747126.5951729920
-2783843.3160318560
13703842.3362933993
277693499.7493056059
316404269.7789620757
0.6965266400
0.7580277000
0.8075972100
126126696.8126026988
0.8008785200
841584457.3354599476
25410216.9072545208
2963475.9961456261
4252177.9370626276
3649416691.8010931015
192270654.9821330905
464114251.0505443215
-7985973.9960783543
-9083562.1731488612
34014560.7183751538
-36541072.9093975723
416639.2025189011
1220330851.8507225513
-8260182.4292169539
909211.9003026541
-18713830.2431596480
595288650.9545172453
545177843.1442924738
-15820055.4596759267
89422082.9329178929
-30878646.0492663160
-62545361.7132654339
695627993.7529121637
422900945.2771091461
3573465.1735459040
45047958.6063221768
6564949.7987590050
4722648150.5868616104
255127918.3675093055
316674535.4643573761
-10771171.5296113677
-28976079.1780139357
20893266.9106991999
2365034625.1367902756
-158449.5854613729
2998270792.5022354126
0.0476630300
0.4743196100
0.0291690900
704435456.0754957199
0.4139996300
152266855.6052865386
-1196452.5757267163
118477.7237280300
2544942.6577633806
18366579011.7877235413
884015543.4416024685
1477190885.7386476994
13929973.4016765952
4961949.0068246480
8747661.3767147660
1099380015.8643748760
61348.4369913671
345040481.5324779749
18964986.9422864094
-1260178.2408549699
-2615597.4666654798
586027799.7349507809
370916063.8876156807
15567898.6136681568
51367431.1112334132
11373433.5126713980
815516287.2599416971
-90900.0754911972
507745080.3307328224
-16238485.4520105831
33992161.6376506612
-3287468.1785325180
2480876038.8504099846
139384714.8553629220
4444891141.9855966568
-21271951.7988544479
1049523.0736582007
-12863680.2005697191
559022015.2641834021
526276689.5357796550
-216686.3143518893
-461296.3897276852
0.7410934700
0.0246689400
0.1688313700
237089373.8189040422
0.8098690800
71370326.9327434599
1695813.0313319166
-1886658.3865683915
2606260.3813156411
263356416.3246833980
94292354.1075575352
7168158581.7516670227
-2629618.5378707703
6136076.6074682754
14427743.7888211608
2741595966.3639645576
306849.5221980991
491715420.5602253079
9240235.3787612636
-8260337.3731588982
-17776042.9402559213
4912839125.0536642075
98348.9204929215
488768898.6880556345
11431095.7158307023
-63990146.9512575567
20041971.2746919096
6505268838.3076667786
189629072.6369884014
17841922.9413866326
-8317000.5608065203
-2113253.7355519719
-15087231.5653977357
150785102.1654367447
155508674.0099416375
0.9496078000
0.3213632100
0.0276657100
199607890.0284698606
0.8975445600
149602227.9412321448
-18853495.3408385478
7029438.4923732644
-15567997.1669484265
656054775.0031986237
64805.0150653091
634988294.4600073099
-39087001.8794952631
9039443.2345082462
-25531016.6422328353
682380778.7617493868
29996.5643890967
808025058.0270936489
0.3839016600
0.7296844400
0.7481558600
317751914.7562384605
0.4914615900
37898042.8672990352
20737994.5456512794
-7868342.2607656009
10175835.1041969936
696333916.6008598804
580668727.6962583065
2287743603.0073184967
15920516.9957899973
7607956.6244000448
-7471023.4412289495
788977195.1748290062
109476593.0786157697
4094757777.9193339348
216628.7100527206
-39225562.9836230204
-9613519.1189186573
199075650.3908140063
254663.2621327681
220654225.4883607626
3573806.2886301046
-2313542.2275300440
44134858.7626077533
9641190800.3950920105
684398548.8807013035
1281831124.9007458687
11196496.1556638777
1286317.5536532989
-25444978.7021468468
880182200.8615465164
1925562365.5299005508
-26381030.7250348255
34555444.7871375084
1720237.1831314263
1909084371.4333207607
1176026092.6449892521
527736833.9614365101
16827882.3458579183
109896582.5998691022
13288217.9033892658
12713410162.5122833252
984710589.7568025589
2252268602.5284438133
52318973.3425263017
24126659.8776878566
2459671.8817014946
363382233.2267027497
251352326.2664640546
10317470984.5127468109
20569843.9233328551
62920891.9554443806
-845355.4594216784
361194448.1220867038
72716053.5924603343
4100045255.0831737518
-17408712.6816786118
28491732.4681384154
20609554.1200748906
2600816850.8181295395
375310.2823978392
1251114333.8886294365
2910868.1360514648
-21960293.2168752477
-41134493.4216078743
2802981393.8329095840
-540273.2002064040
1036045801.3107149601
-36340270.6242695004
468720.6961393130
-20231783.8522928432
514857436.5606675148
594057099.5635697842
582902.3876479708
-319466.0608001905
33703248.2377851233
7562632.7275994355
-3479354.6923158485
816344053.8333809376
750429.6820984923
1095163375.1483056545
38249711.3755206391
1463064.4035448744
5141814.7151171882
1875011288.7132320404
328320987.9428831339
585756699.6792082787
-711586.1533656948
53239.1184722700
15876369.0130471289
357212069.1206759214
431461924.6442690492
-6875923.9508755365
-773909.9442496358
-1472939.7590043421
2309575693.7068371773
356972.0597396455
1612587841.1702697277
-38896097.3678538948
22823424.4040259011
-4565464.6417759992
723208337.5794930458
10604.2018381957
1058732001.3217844963
0.7694265700
0.6686047600
0.6486596700
205117814.4829334319
0.5172948000
252801866.0225568414
-6680870.7120401207
7597142.0986650353
6633635.8399489885
337851274.7538315058
248941.2536578685
212885993.5344124734
2775245.6090905317
-67259.9359179742
-908201.7682331537
512124479.3323326707
379036460.1717872620
12193210.6014364343
72820020.6905001253
-6821900.7027704017
785186382.4144126177
131857.5222830674
505183662.7449830174
4740458.7890310781
2450878.5362644382
-3997177.1582941418
200297777.5784941018
280027895.1017044783
87107.0091744887
415912.5754355155
0.8225736400
0.4395762900
0.3120297100
234099845.7875178158
0.5531096600
111047594.6338094026
0.2591109200
0.0606610100
0.7909537500
3102386976.4665274620
0.0715466300
192306979.2292910516
-26400032.4482292794
205818.2178058959
13415255.8901010100
370795291.2658334374
429950182.3489620686
-1741107.4363301068
100930641.8651041240
-2937461.9251200459
6298879403.6375732422
377205096.9160916805
250860962.7129522860
-84271.4272664065
2536410.8192299209
-1587098.7216885537
902948215.8748966455
-20464.5215407460
254078620.8925666809
-21378954.6916474290
6853181.3319060644
-9674513.7849754319
1193480384.3071362972
-33329.7027820594
760004623.1822842360
-2057352.1977682023
3307610.8456940106
11460806.0404385924
265048368.9701821208
206416202.8287647665
6605349.2631112188
-3297620.1289650733
-14426636.8325622678
317516531.5454847813
149365537.5420535803
0.0431886000
0.5498028900
0.5855818600
248367503.2354332805
0.0630967400
71493613.9240163565
-13906382.8490717597
21309322.5045725666
19251403.8691561669
1166706679.2374801636
-139324.8918272003
802229304.6438859701
-11306302.9502105508
2637533.6718846927
-13493529.0477084778
1010049614.2522138357
186337225.2259095609
5765940010.9407052994
-5803814.8232097281
-12101675.5139869284
-37919180.0205073506
1594577865.9368193150
44747924.7076163515
4009265165.3599357605
-6339911.9281681394
20290642.4577703886
11935305.0687121730
976388693.5648472309
6260625.1202429608
902465003.2818598747
-32765771.4039594494
-58123847.2505657151
-5476553.4947898341
518877195.8855443597
688692933.1593092680
3543901826.6632790565
17984123.4715518206
-24344247.7258881256
-10979826.1314827558
474085561.5305035114
75633457.0576934069
11516820248.6033573151
8692572.9640747011
3411486.1325401715
931526.4657466041
2761169130.5231671333
1005923.8764074153
400914246.8251566291
-18881654.7847231105
-2035465.8268503735
-3373785.7776314788
299010394.6619236469
308195895.9210414886
7851884.9561545933
-397458.3267888424
-465229.6379887792
579763897.6373621225
573591626.8158702850
-2189154.5916570439
-3351187.1674289885
-5923561.2970885523
870510745.4189057350
77594.5542218560
613042316.8006148338
-6414066.7483283235
-1202130.5434535334
1010340.3622863318
42364341.1151878387
78313523.9979664683
-1737353.1628511797
6073830.1819798648
-3841222.0988017237
802262155.9864174128
-82413.1072980853
464147352.4093949199
-9409950.4498275518
11414370.4327924009
3971213.2173386784
345539309.4799739122
1208.1737295909
162645742.2165136635
0.5751778500
0.0489826900
0.2683609300
311224722.6133651137
0.3273228600
92692272.8182827085
0.4424099800
0.2713531500
0.2104125300
603476650.3274868727
0.7348090100
343444823.5372078419
18270080.4685978703
15193405.4720896240
4258529.8238485064
1414710133.2251801491
709187.7384933903
1122431411.4636282921
13396408.1963240355
4140429.9406777644
1943157.7340229182
862950610.6272670031
78081.4937189977
430025272.4199532866
-16513913.1653093528
-20297517.1789327189
17302017.8482664824
1525276261.8246414661
18055.4606906990
1056196748.3612439632
7452127.8574679885
-869905.0103423743
-2086551.6368664608
373993370.9777935147
515963594.8233934045
1883206.7174384240
3326044.2990259584
7126803.9589979332
210460437.4023022354
202486325.9337661266
-8547468.8163826205
1003888.7824616439
6735011.2918501496
129393327.8678959757
180407574.9349873364
3031587.7609218536
4820349.9217128046
-9413569.9387718197
272610828.5584601760
17247.9282694070
127959615.7164930403
0.1917436100
0.0176116300
0.9821634200
119636305.9112066478
0.2531030600
12718509.9886576664
-4543411.9706044011
3853457.4033265403
-3583571.3333542165
967034908.9123599529
17906.6440950847
359399267.7020453215
0.9510396900
0.4218713200
0.6255400600
444893767.1999850273
0.4834091100
42087357.6126126796
